Automatically generated mesh
42
Reciprocal lattice
    0.00000000000000    0.25000000000000    0.25000000000000             2
    0.20000000000000    0.25000000000000    0.25000000000000             4
    0.40000000000000    0.25000000000000    0.25000000000000             4
    0.00000000000000   -0.25000000000000    0.25000000000000             2
    0.20000000000000   -0.25000000000000    0.25000000000000             4
    0.40000000000000   -0.25000000000000    0.25000000000000             4
0.000000	-0.500000	-0.000000	0.00
0.000000	-0.500000	-0.000000	0.00
0.000000	-0.400000	-0.100000	0.00
0.000000	-0.300000	-0.200000	0.00
0.000000	-0.200000	-0.300000	0.00
0.000000	-0.100000	-0.400000	0.00
0.000000	0.000000	-0.500000	0.00
-0.100000	0.000000	-0.400000	0.00
-0.200000	0.000000	-0.300000	0.00
-0.300000	0.000000	-0.200000	0.00
-0.400000	0.000000	-0.100000	0.00
-0.500000	0.000000	0.000000	0.00
-0.400000	0.000000	0.000000	0.00
-0.300000	0.000000	0.000000	0.00
-0.200000	0.000000	0.000000	0.00
-0.100000	0.000000	0.000000	0.00
0.000000	0.000000	0.000000	0.00
0.000000	-0.097296	0.096448	0.00
0.000000	-0.194592	0.192896	0.00
0.000000	-0.291888	0.289344	0.00
0.000000	-0.389184	0.385792	0.00
0.000000	-0.486480	0.482240	0.00
0.100000	-0.389184	0.485792	0.00
0.200000	-0.291888	0.489344	0.00
0.300000	-0.194592	0.492896	0.00
0.400000	-0.097296	0.496448	0.00
0.500000	-0.000000	0.500000	0.00
0.500000	-0.100000	0.300000	0.00
0.500000	-0.200000	0.100000	0.00
0.500000	-0.300000	-0.100000	0.00
0.500000	-0.400000	-0.300000	0.00
0.500000	-0.500000	-0.500000	0.00
0.400000	-0.500000	-0.400000	0.00
0.300000	-0.500000	-0.300000	0.00
0.200000	-0.500000	-0.200000	0.00
0.100000	-0.500000	-0.100000	0.00
