K4 Bi8 S14                              
   1.00000000000000     
     4.1011654836507443    0.0000000000000000    0.0000000000000000
     0.0000000000000000   12.6720252898834644   -0.2849921621265966
     0.0000000000000000    0.7875224915713626   14.4392427810400914
   K    Bi   S 
     4     8    14
Direct
  0.2500000000000000  0.5617033442334369  0.8166979049796010
  0.7500000000000000  0.4382966557665627  0.1833020950203988
  0.7500000000000000  0.8286150355258188  0.6208776754584699
  0.2500000000000000  0.1713849644741811  0.3791223245415302
  0.2500000000000000  0.9371823219747581  0.8732246685401588
  0.7500000000000000  0.0628176780252419  0.1267753314598406
  0.2500000000000000  0.8391574903134137  0.2827529896847674
  0.7500000000000000  0.1608425096865865  0.7172470103152324
  0.7500000000000000  0.7294647454549255  0.0478321500063735
  0.2500000000000000  0.2705352545450747  0.9521678499936264
  0.7500000000000000  0.6072978785246903  0.4305702182611333
  0.2500000000000000  0.3927021214753098  0.5694297817388665
  0.2500000000000000  0.4574549138866300  0.3862647495698837
  0.7500000000000000  0.5425450861133702  0.6137352504301161
  0.2500000000000000  0.5951605863977599  0.0365330773816432
  0.7500000000000000  0.4048394136022400  0.9634669226183566
  0.7500000000000000  0.9981556889323004  0.3059797119879529
  0.2500000000000000  0.0018443110676995  0.6940202880120471
  0.7500000000000000  0.7853579567710722  0.8512093147452049
  0.2500000000000000  0.2146420432289278  0.1487906852547947
  0.2500000000000000  0.7588240153662749  0.4615527855578619
  0.7500000000000000  0.2411759846337252  0.5384472144421384
  0.7500000000000000  0.6964230798517983  0.2413128505208182
  0.2500000000000000  0.3035769201482020  0.7586871494791818
  0.2500000000000000  0.9080346907509489  0.0861715268829217
  0.7500000000000000  0.0919653092490511  0.9138284731170784
 
  0.00000000E+00  0.00000000E+00  0.00000000E+00
  0.00000000E+00  0.00000000E+00  0.00000000E+00
  0.00000000E+00  0.00000000E+00  0.00000000E+00
  0.00000000E+00  0.00000000E+00  0.00000000E+00
  0.00000000E+00  0.00000000E+00  0.00000000E+00
  0.00000000E+00  0.00000000E+00  0.00000000E+00
  0.00000000E+00  0.00000000E+00  0.00000000E+00
  0.00000000E+00  0.00000000E+00  0.00000000E+00
  0.00000000E+00  0.00000000E+00  0.00000000E+00
  0.00000000E+00  0.00000000E+00  0.00000000E+00
  0.00000000E+00  0.00000000E+00  0.00000000E+00
  0.00000000E+00  0.00000000E+00  0.00000000E+00
  0.00000000E+00  0.00000000E+00  0.00000000E+00
  0.00000000E+00  0.00000000E+00  0.00000000E+00
  0.00000000E+00  0.00000000E+00  0.00000000E+00
  0.00000000E+00  0.00000000E+00  0.00000000E+00
  0.00000000E+00  0.00000000E+00  0.00000000E+00
  0.00000000E+00  0.00000000E+00  0.00000000E+00
  0.00000000E+00  0.00000000E+00  0.00000000E+00
  0.00000000E+00  0.00000000E+00  0.00000000E+00
  0.00000000E+00  0.00000000E+00  0.00000000E+00
  0.00000000E+00  0.00000000E+00  0.00000000E+00
  0.00000000E+00  0.00000000E+00  0.00000000E+00
  0.00000000E+00  0.00000000E+00  0.00000000E+00
  0.00000000E+00  0.00000000E+00  0.00000000E+00
  0.00000000E+00  0.00000000E+00  0.00000000E+00
