K4 Sb4 S8                               
   1.00000000000000     
     6.3579981064667104    0.7764150437322275   -0.9479799365007678
    -0.8491836355802128    6.3244497368408092   -0.5190847052473782
     0.1496891240242590    1.0222162007692168   11.9193119421114773
   K    Sb   S 
     4     4     8
Direct
  0.5154326472853110  0.7364051035205883  0.8801772192060483
  0.4845673527146886  0.2635948964794120  0.1198227807939517
  0.9858681146676869  0.7357066987027040  0.6208087179567485
  0.0141318853323132  0.2642933012972961  0.3791912820432516
  0.0372492519156816  0.7985756260925478  0.1227281766933981
  0.9627507480843188  0.2014243739074522  0.8772718233066019
  0.4589185823846572  0.7960112206237574  0.3797813160541319
  0.5410814176153429  0.2039887793762428  0.6202186839458685
  0.5162970064000336  0.1762598039419880  0.3851589705049016
  0.4837029935999665  0.8237401960580120  0.6148410294950987
  0.9834545101991820  0.1792470404815344  0.1145131450404166
  0.0165454898008176  0.8207529595184656  0.8854868549595761
  0.9235429267341737  0.2273474496647823  0.6431122080871399
  0.0764570732658262  0.7726525503352174  0.3568877919128593
  0.5805523914645416  0.2281400856896738  0.8545044321705820
  0.4194476085354583  0.7718599143103262  0.1454955678294176
 
  0.00000000E+00  0.00000000E+00  0.00000000E+00
  0.00000000E+00  0.00000000E+00  0.00000000E+00
  0.00000000E+00  0.00000000E+00  0.00000000E+00
  0.00000000E+00  0.00000000E+00  0.00000000E+00
  0.00000000E+00  0.00000000E+00  0.00000000E+00
  0.00000000E+00  0.00000000E+00  0.00000000E+00
  0.00000000E+00  0.00000000E+00  0.00000000E+00
  0.00000000E+00  0.00000000E+00  0.00000000E+00
  0.00000000E+00  0.00000000E+00  0.00000000E+00
  0.00000000E+00  0.00000000E+00  0.00000000E+00
  0.00000000E+00  0.00000000E+00  0.00000000E+00
  0.00000000E+00  0.00000000E+00  0.00000000E+00
  0.00000000E+00  0.00000000E+00  0.00000000E+00
  0.00000000E+00  0.00000000E+00  0.00000000E+00
  0.00000000E+00  0.00000000E+00  0.00000000E+00
  0.00000000E+00  0.00000000E+00  0.00000000E+00
