Li4 Sb4 S8                              
   1.00000000000000     
     5.3329889223599025    0.6769268931434311   -0.4639617092528331
    -0.7193641676527305    5.3368623180073014   -0.4392313385493681
     0.8549135188584213    1.0469274384158027   11.1165265047543436
   Li   Sb   S 
     4     4     8
Direct
  0.5035326968412649  0.7502063083531125  0.8761478597349772
  0.4964673031587350  0.2497936916468876  0.1238521402650227
  0.9962366406571630  0.7499693605239728  0.6241954612066776
  0.0037633593428372  0.2500306394760274  0.3758045387933223
  0.0005510839771136  0.7500107841517814  0.1237593196664385
 -0.0005510839771138  0.2499892158482190  0.8762406803335613
  0.4997342596177816  0.7501620805371964  0.3762683876570769
  0.5002657403822189  0.2498379194628036  0.6237316123429231
  0.5029270349782611  0.2523707410988884  0.3767443059243502
  0.4970729650217389  0.7476292589011121  0.6232556940756495
  0.9977030151581435  0.2477382591216738  0.1233895948104016
  0.0022969848418562  0.7522617408783261  0.8766104051895915
  0.9969763863693489  0.2492071811313807  0.6270331866153169
  0.0030236136306509  0.7507928188686195  0.3729668133846832
  0.5027474332123624  0.2508532591800324  0.8729211633119277
  0.4972525667876376  0.7491467408199679  0.1270788366880724
 
  0.00000000E+00  0.00000000E+00  0.00000000E+00
  0.00000000E+00  0.00000000E+00  0.00000000E+00
  0.00000000E+00  0.00000000E+00  0.00000000E+00
  0.00000000E+00  0.00000000E+00  0.00000000E+00
  0.00000000E+00  0.00000000E+00  0.00000000E+00
  0.00000000E+00  0.00000000E+00  0.00000000E+00
  0.00000000E+00  0.00000000E+00  0.00000000E+00
  0.00000000E+00  0.00000000E+00  0.00000000E+00
  0.00000000E+00  0.00000000E+00  0.00000000E+00
  0.00000000E+00  0.00000000E+00  0.00000000E+00
  0.00000000E+00  0.00000000E+00  0.00000000E+00
  0.00000000E+00  0.00000000E+00  0.00000000E+00
  0.00000000E+00  0.00000000E+00  0.00000000E+00
  0.00000000E+00  0.00000000E+00  0.00000000E+00
  0.00000000E+00  0.00000000E+00  0.00000000E+00
  0.00000000E+00  0.00000000E+00  0.00000000E+00
