Automatically generated mesh
57
Reciprocal lattice
   -0.00000000000000    0.25000000000000    0.25000000000000             2
    0.33333333333333    0.25000000000000    0.25000000000000             2
   -0.33333333333333    0.25000000000000    0.25000000000000             2
    0.00000000000000   -0.25000000000000    0.25000000000000             2
    0.33333333333333   -0.25000000000000    0.25000000000000             2
   -0.33333333333333   -0.25000000000000    0.25000000000000             2
0.000000	-0.000000	-0.500000	0.00
0.000000	-0.000000	-0.500000	0.00
0.100000	-0.100000	-0.400000	0.00
0.200000	-0.200000	-0.300000	0.00
0.300000	-0.300000	-0.200000	0.00
0.400000	-0.400000	-0.100000	0.00
0.500000	-0.500000	0.000000	0.00
0.500000	-0.400000	0.000000	0.00
0.500000	-0.300000	0.000000	0.00
0.500000	-0.200000	0.000000	0.00
0.500000	-0.100000	0.000000	0.00
0.500000	0.000000	0.000000	0.00
0.400000	0.100000	0.000000	0.00
0.300000	0.200000	0.000000	0.00
0.200000	0.300000	0.000000	0.00
0.100000	0.400000	0.000000	0.00
0.000000	0.500000	0.000000	0.00
0.000000	0.400000	0.000000	0.00
0.000000	0.300000	0.000000	0.00
0.000000	0.200000	0.000000	0.00
0.000000	0.100000	0.000000	0.00
-0.000000	0.000000	-0.000000	0.00
-0.097510	0.095798	-0.110782	0.00
-0.195020	0.191596	-0.221564	0.00
-0.292530	0.287394	-0.332346	0.00
-0.390040	0.383192	-0.443128	0.00
-0.487550	0.478990	-0.553910	0.00
-0.488150	0.382784	-0.548122	0.00
-0.488750	0.286578	-0.542334	0.00
-0.489350	0.190372	-0.536546	0.00
-0.489950	0.094166	-0.530758	0.00
-0.490550	-0.002040	-0.524970	0.00
-0.478878	-0.074176	-0.420942	0.00
-0.467206	-0.146312	-0.316914	0.00
-0.455534	-0.218448	-0.212886	0.00
-0.443862	-0.290584	-0.108858	0.00
-0.432190	-0.362720	-0.004830	0.00
-0.346352	-0.386384	-0.098076	0.00
-0.260514	-0.410048	-0.191322	0.00
-0.174676	-0.433712	-0.284568	0.00
-0.088838	-0.457376	-0.377814	0.00
-0.003000	-0.481040	-0.471060	0.00
0.084638	-0.516082	-0.281668	0.00
0.172276	-0.551124	-0.092276	0.00
0.259914	-0.586166	0.097116	0.00
0.347552	-0.621208	0.286508	0.00
0.435190	-0.656250	0.475900	0.00
0.348152	-0.525000	0.280720	0.00
0.261114	-0.393750	0.085540	0.00
0.174076	-0.262500	-0.109640	0.00
0.087038	-0.131250	-0.304820	0.00
