Li4 Sb8 Se14                            
   1.00000000000000     
    -7.1059435752147522   -0.0848570368850770   -0.0378788504991997
     2.1695269323092137    8.9805902294538775   -0.5774537757109329
    -0.4259624985794432   -1.2872218641122397  -11.2140624641031934
   Li   Sb   Se
     4     8    14
Direct
  0.3476789010792061  0.3288451601341510  0.1314940386695169
  0.3573334007595900  0.8347007459077068  0.6407506675010399
  0.6426665992404105  0.1652992540922928  0.3592493324989594
  0.6523210989207938  0.6711548398658561  0.8685059613304830
  0.0308872063036603  0.9565248314735028  0.3317880065629846
  0.1115011017123703  0.4559773145686324  0.8100638840990010
  0.7624180587429911  0.1289725106450298  0.0466056149764580
  0.5209057897287034  0.2479511759005095  0.7547139972195870
  0.2375819412570089  0.8710274893549704  0.9533943850235423
  0.9691127936963393  0.0434751685264972  0.6682119934370230
  0.8884988982876297  0.5440226854313679  0.1899361159009991
  0.4790942102712967  0.7520488240994903  0.2452860027804129
  0.8437203018671613  0.8376986457905282  0.1198739650467965
  0.6864013908936255  0.3832349396393340  0.9596269320744506
  0.4533888807458687  0.5105103945561179  0.6923508892756987
  0.2925687026343265  0.0649149164405172  0.5397041243863094
  0.0950116608248648  0.6874112817375606  0.3762173528788444
  0.3135986091063743  0.6167650603606661  0.0403730679255497
  0.4264962570167029  0.0647804392043759  0.1726474607943928
  0.9049883391751350  0.3125887182624398  0.6237826471211555
  0.5735037429832971  0.9352195607956237  0.8273525392056141
  0.9704720094525222  0.2745883584789609  0.2364242613554209
  0.0295279905474782  0.7254116415210388  0.7635757386445786
  0.7074312973656735  0.9350850835594835  0.4602958756136910
  0.5466111192541314  0.4894896054438823  0.3076491107243010
  0.1562796981328386  0.1623013542094720  0.8801260349532036
 
  0.00000000E+00  0.00000000E+00  0.00000000E+00
  0.00000000E+00  0.00000000E+00  0.00000000E+00
  0.00000000E+00  0.00000000E+00  0.00000000E+00
  0.00000000E+00  0.00000000E+00  0.00000000E+00
  0.00000000E+00  0.00000000E+00  0.00000000E+00
  0.00000000E+00  0.00000000E+00  0.00000000E+00
  0.00000000E+00  0.00000000E+00  0.00000000E+00
  0.00000000E+00  0.00000000E+00  0.00000000E+00
  0.00000000E+00  0.00000000E+00  0.00000000E+00
  0.00000000E+00  0.00000000E+00  0.00000000E+00
  0.00000000E+00  0.00000000E+00  0.00000000E+00
  0.00000000E+00  0.00000000E+00  0.00000000E+00
  0.00000000E+00  0.00000000E+00  0.00000000E+00
  0.00000000E+00  0.00000000E+00  0.00000000E+00
  0.00000000E+00  0.00000000E+00  0.00000000E+00
  0.00000000E+00  0.00000000E+00  0.00000000E+00
  0.00000000E+00  0.00000000E+00  0.00000000E+00
  0.00000000E+00  0.00000000E+00  0.00000000E+00
  0.00000000E+00  0.00000000E+00  0.00000000E+00
  0.00000000E+00  0.00000000E+00  0.00000000E+00
  0.00000000E+00  0.00000000E+00  0.00000000E+00
  0.00000000E+00  0.00000000E+00  0.00000000E+00
  0.00000000E+00  0.00000000E+00  0.00000000E+00
  0.00000000E+00  0.00000000E+00  0.00000000E+00
  0.00000000E+00  0.00000000E+00  0.00000000E+00
  0.00000000E+00  0.00000000E+00  0.00000000E+00
