Li4 Sb4 Se8                             
   1.00000000000000     
     5.5674982554511345    0.7089368486590075   -0.4953031423198689
    -0.7471909656411369    5.5718640330266727   -0.4527695419525418
     0.8916938701673861    1.1060183358182332   11.6302802414663251
   Li   Sb   Se
     4     4     8
Direct
  0.5026186382586114  0.7494180365113395  0.8777925708703631
  0.4973813617413892  0.2505819634886600  0.1222074291296366
  0.9965974049427333  0.7504918863829579  0.6228473546237353
  0.0034025950572669  0.2495081136170420  0.3771526453762651
  0.0019114980489729  0.7524163395923693  0.1234107605949950
  0.9980885019510276  0.2475836604076304  0.8765892394050052
  0.5020193144090840  0.7477700988773178  0.3764983075523583
  0.4979806855909160  0.2522299011226828  0.6235016924476422
  0.5004706343737209  0.2500022526031020  0.3765893343984716
  0.4995293656262796  0.7499977473968975  0.6234106656015281
  0.9994883693783493  0.2502333621436171  0.1234222437815639
  0.0005116306216504  0.7497666378563831  0.8765777562184290
 -0.0003642962309664  0.2497350147719556  0.6255317508203666
  0.0003642962309666  0.7502649852280445  0.3744682491796332
  0.4998718727760819  0.2499645396866964  0.8747528404902984
  0.5001281272239183  0.7500354603133037  0.1252471595097015
 
  0.00000000E+00  0.00000000E+00  0.00000000E+00
  0.00000000E+00  0.00000000E+00  0.00000000E+00
  0.00000000E+00  0.00000000E+00  0.00000000E+00
  0.00000000E+00  0.00000000E+00  0.00000000E+00
  0.00000000E+00  0.00000000E+00  0.00000000E+00
  0.00000000E+00  0.00000000E+00  0.00000000E+00
  0.00000000E+00  0.00000000E+00  0.00000000E+00
  0.00000000E+00  0.00000000E+00  0.00000000E+00
  0.00000000E+00  0.00000000E+00  0.00000000E+00
  0.00000000E+00  0.00000000E+00  0.00000000E+00
  0.00000000E+00  0.00000000E+00  0.00000000E+00
  0.00000000E+00  0.00000000E+00  0.00000000E+00
  0.00000000E+00  0.00000000E+00  0.00000000E+00
  0.00000000E+00  0.00000000E+00  0.00000000E+00
  0.00000000E+00  0.00000000E+00  0.00000000E+00
  0.00000000E+00  0.00000000E+00  0.00000000E+00
