Li4 Bi8 Se14                            
   1.00000000000000     
     4.1453946512512658    0.0000000000000000    0.0000000000000000
     0.0000000000000000   13.8751936342672320   -1.0078141439464250
     0.0000000000000000   -0.1136378804649319   12.7368595015517698
   Li   Bi   Se
     4     8    14
Direct
  0.2500000000000000  0.5698070797861696  0.7622548313063781
  0.7500000000000000  0.4301929202138300  0.2377451686936218
  0.7500000000000000  0.8864340431650281  0.5989226149530226
  0.2500000000000000  0.1135659568349726  0.4010773850469768
  0.2500000000000000  0.9514985686500127  0.8482568322185929
  0.7500000000000000  0.0485014313499882  0.1517431677814076
  0.2500000000000000  0.8299916478935113  0.2994489084935472
  0.7500000000000000  0.1700083521064888  0.7005510915064533
  0.7500000000000000  0.7295918651619193  0.0001385987411280
  0.2500000000000000  0.2704081348380805  0.9998614012588719
  0.7500000000000000  0.6188147837146887  0.4472296001095791
  0.2500000000000000  0.3811852162853118  0.5527703998904208
  0.2500000000000000  0.4764255315317470  0.3582443263058624
  0.7500000000000000  0.5235744684682528  0.6417556736941379
  0.2500000000000000  0.5972528304771383 -0.0401312080548602
  0.7500000000000000  0.4027471695228618  0.0401312080548601
  0.7500000000000000 -0.0125441991869667  0.3608584174863893
  0.2500000000000000  0.0125441991869666  0.6391415825136110
  0.7500000000000000  0.8099357556131425  0.7922554651429413
  0.2500000000000000  0.1900642443868575  0.2077445348570589
  0.2500000000000000  0.7610308186641540  0.5113352235932809
  0.7500000000000000  0.2389691813358462  0.4886647764067193
  0.7500000000000000  0.6932559395485565  0.2332023654456297
  0.2500000000000000  0.3067440604514438  0.7667976345543703
  0.2500000000000000  0.8972046110125493  0.0801000150410612
  0.7500000000000000  0.1027953889874508  0.9198999849589381
 
  0.00000000E+00  0.00000000E+00  0.00000000E+00
  0.00000000E+00  0.00000000E+00  0.00000000E+00
  0.00000000E+00  0.00000000E+00  0.00000000E+00
  0.00000000E+00  0.00000000E+00  0.00000000E+00
  0.00000000E+00  0.00000000E+00  0.00000000E+00
  0.00000000E+00  0.00000000E+00  0.00000000E+00
  0.00000000E+00  0.00000000E+00  0.00000000E+00
  0.00000000E+00  0.00000000E+00  0.00000000E+00
  0.00000000E+00  0.00000000E+00  0.00000000E+00
  0.00000000E+00  0.00000000E+00  0.00000000E+00
  0.00000000E+00  0.00000000E+00  0.00000000E+00
  0.00000000E+00  0.00000000E+00  0.00000000E+00
  0.00000000E+00  0.00000000E+00  0.00000000E+00
  0.00000000E+00  0.00000000E+00  0.00000000E+00
  0.00000000E+00  0.00000000E+00  0.00000000E+00
  0.00000000E+00  0.00000000E+00  0.00000000E+00
  0.00000000E+00  0.00000000E+00  0.00000000E+00
  0.00000000E+00  0.00000000E+00  0.00000000E+00
  0.00000000E+00  0.00000000E+00  0.00000000E+00
  0.00000000E+00  0.00000000E+00  0.00000000E+00
  0.00000000E+00  0.00000000E+00  0.00000000E+00
  0.00000000E+00  0.00000000E+00  0.00000000E+00
  0.00000000E+00  0.00000000E+00  0.00000000E+00
  0.00000000E+00  0.00000000E+00  0.00000000E+00
  0.00000000E+00  0.00000000E+00  0.00000000E+00
  0.00000000E+00  0.00000000E+00  0.00000000E+00
