Li4 Ga4 S8                              
   1.00000000000000     
     6.3106089300190789    0.0000000000000000    0.0000000000000000
     0.0000000000000000    6.6090962212709377    0.0000000000000000
     0.0000000000000000    0.0000000000000000    7.9394129489732013
   Li   Ga   S 
     4     4     8
Direct
  0.5667868527231145  0.5846646936432583  0.1234158506905880
  0.0667868527231144  0.4153353063567418  0.8765841493094122
  0.0667868527231144  0.9153353063567417  0.6234158506905878
  0.5667868527231145  0.0846646936432584  0.3765841493094121
  0.0646657055101501  0.9271386169008203  0.1256685289042215
  0.5646657055101498  0.0728613830991797  0.8743314710957787
  0.5646657055101498  0.5728613830991797  0.6256685289042213
  0.0646657055101501  0.4271386169008203  0.3743314710957784
  0.1790695947490986  0.0937684567118142  0.3652803160579804
  0.6790695947490984  0.9062315432881860  0.6347196839420197
  0.6790695947490984  0.4062315432881858  0.8652803160579803
  0.1790695947490986  0.5937684567118140  0.1347196839420195
  0.6966778470176341  0.9310593237237726  0.1181013378593710
  0.1966778470176342  0.0689406762762272  0.8818986621406290
  0.1966778470176342  0.5689406762762274  0.6181013378593710
  0.6966778470176341  0.4310593237237729  0.3818986621406289
 
  0.00000000E+00  0.00000000E+00  0.00000000E+00
  0.00000000E+00  0.00000000E+00  0.00000000E+00
  0.00000000E+00  0.00000000E+00  0.00000000E+00
  0.00000000E+00  0.00000000E+00  0.00000000E+00
  0.00000000E+00  0.00000000E+00  0.00000000E+00
  0.00000000E+00  0.00000000E+00  0.00000000E+00
  0.00000000E+00  0.00000000E+00  0.00000000E+00
  0.00000000E+00  0.00000000E+00  0.00000000E+00
  0.00000000E+00  0.00000000E+00  0.00000000E+00
  0.00000000E+00  0.00000000E+00  0.00000000E+00
  0.00000000E+00  0.00000000E+00  0.00000000E+00
  0.00000000E+00  0.00000000E+00  0.00000000E+00
  0.00000000E+00  0.00000000E+00  0.00000000E+00
  0.00000000E+00  0.00000000E+00  0.00000000E+00
  0.00000000E+00  0.00000000E+00  0.00000000E+00
  0.00000000E+00  0.00000000E+00  0.00000000E+00
