Li4 Ga4 S8
1.0
   6.5204319300000000    0.0000000000000000    0.0000000000000000
   0.0000000000000000    6.9304706800000000    0.0000000000000000
   0.0000000000000000    0.0000000000000000    8.0885981499999993
Li Ga S
4 4 8
direct
   0.5668287400000001    0.5853227100000000    0.1223769000000000 Li+
   0.0668287400000000    0.4146772900000000    0.8776231000000000 Li+
   0.0668287400000000    0.9146772900000000    0.6223769000000000 Li+
   0.5668287400000001    0.0853227100000000    0.3776231000000000 Li+
   0.0642063100000000    0.9187006700000000    0.1256045100000000 Ga3+
   0.5642063100000000    0.0812993300000000    0.8743954900000001 Ga3+
   0.5642063100000000    0.5812993300000000    0.6256045099999999 Ga3+
   0.0642063100000000    0.4187006700000000    0.3743954900000000 Ga3+
   0.1920575800000000    0.0830159900000000    0.3766202100000000 S2-
   0.6920575800000000    0.9169840100000000    0.6233797900000000 S2-
   0.6920575800000000    0.4169840100000000    0.8766202100000000 S2-
   0.1920575800000000    0.5830159900000000    0.1233797900000000 S2-
   0.6841073700000000    0.9194893600000000    0.1283171300000000 S2-
   0.1841073700000000    0.0805106400000000    0.8716828700000000 S2-
   0.1841073700000000    0.5805106400000000    0.6283171300000000 S2-
   0.6841073700000000    0.4194893600000000    0.3716828700000000 S2-
