Na4 Bi8 Se14                            
   1.00000000000000     
     4.1953964315259809    0.0000000000000000    0.0000000000000000
     0.0000000000000000   13.7236737880783828   -0.4713602523829359
     0.0000000000000000    0.1645035413442157   13.6892764769456914
   Na   Bi   Se
     4     8    14
Direct
  0.2500000000000000  0.5412562613908370  0.7924107550256132
  0.7500000000000000  0.4587437386091627  0.2075892449743873
  0.7500000000000000  0.8652277773970782  0.6089780421723032
  0.2500000000000000  0.1347722226029225  0.3910219578276969
  0.2500000000000000  0.8322335759131948  0.2933340180665646
  0.7500000000000000  0.1677664240868053  0.7066659819334360
  0.7500000000000000  0.6138783701389600  0.4406007038314564
  0.2500000000000000  0.3861216298610407  0.5593992961685437
  0.7500000000000000  0.7323596328771038  0.0218050541442096
  0.2500000000000000  0.2676403671228960  0.9781949458557904
  0.2500000000000000  0.9482030891075368  0.8602243237540758
  0.7500000000000000  0.0517969108924633  0.1397756762459312
  0.2500000000000000  0.5992880118110780 -0.0038359310773018
  0.7500000000000000  0.4007119881889220  0.0038359310773019
  0.7500000000000000 -0.0133464860708635  0.3356357833716064
  0.2500000000000000  0.0133464860708637  0.6643642166283938
  0.7500000000000000  0.6924962294544080  0.2392362357117203
  0.2500000000000000  0.3075037705455917  0.7607637642882797
  0.7500000000000000  0.8029965873739339  0.8214932143090768
  0.2500000000000000  0.1970034126260659  0.1785067856909229
  0.2500000000000000  0.9004146105634709  0.0830833356332066
  0.7500000000000000  0.0995853894365287  0.9169166643667931
  0.2500000000000000  0.7597866018005957  0.4905127396466057
  0.7500000000000000  0.2402133981994047  0.5094872603533944
  0.2500000000000000  0.4743861868794965  0.3687511826317496
  0.7500000000000000  0.5256138131205035  0.6312488173682502
 
  0.00000000E+00  0.00000000E+00  0.00000000E+00
  0.00000000E+00  0.00000000E+00  0.00000000E+00
  0.00000000E+00  0.00000000E+00  0.00000000E+00
  0.00000000E+00  0.00000000E+00  0.00000000E+00
  0.00000000E+00  0.00000000E+00  0.00000000E+00
  0.00000000E+00  0.00000000E+00  0.00000000E+00
  0.00000000E+00  0.00000000E+00  0.00000000E+00
  0.00000000E+00  0.00000000E+00  0.00000000E+00
  0.00000000E+00  0.00000000E+00  0.00000000E+00
  0.00000000E+00  0.00000000E+00  0.00000000E+00
  0.00000000E+00  0.00000000E+00  0.00000000E+00
  0.00000000E+00  0.00000000E+00  0.00000000E+00
  0.00000000E+00  0.00000000E+00  0.00000000E+00
  0.00000000E+00  0.00000000E+00  0.00000000E+00
  0.00000000E+00  0.00000000E+00  0.00000000E+00
  0.00000000E+00  0.00000000E+00  0.00000000E+00
  0.00000000E+00  0.00000000E+00  0.00000000E+00
  0.00000000E+00  0.00000000E+00  0.00000000E+00
  0.00000000E+00  0.00000000E+00  0.00000000E+00
  0.00000000E+00  0.00000000E+00  0.00000000E+00
  0.00000000E+00  0.00000000E+00  0.00000000E+00
  0.00000000E+00  0.00000000E+00  0.00000000E+00
  0.00000000E+00  0.00000000E+00  0.00000000E+00
  0.00000000E+00  0.00000000E+00  0.00000000E+00
  0.00000000E+00  0.00000000E+00  0.00000000E+00
  0.00000000E+00  0.00000000E+00  0.00000000E+00
