pymatgen with grid density = 807 / number of atoms
0
Monkhorst
5 2 2
