Na4 Bi8 Se14                            
   1.00000000000000     
     4.1893961426161299    0.0000000000000000    0.0000000000000000
     0.0000000000000000   13.6026412717807386   -0.5236517605671910
     0.0000000000000000    0.1120464042502759   13.7544123214262619
   Na   Bi   Se
     4     8    14
Direct
  0.2500000000000000  0.5515825385624257  0.7981902299432750
  0.7500000000000000  0.4484174614375745  0.2018097700567254
  0.7500000000000000  0.8445246349024168  0.6221869315917929
  0.2500000000000000  0.1554753650975824  0.3778130684082071
  0.2500000000000000  0.8439668601076727  0.2964688428436077
  0.7500000000000000  0.1560331398923272  0.7035311571563921
  0.7500000000000000  0.6136611775921232  0.4406762794616980
  0.2500000000000000  0.3863388224078770  0.5593237205383017
  0.7500000000000000  0.7292866686245865  0.0309325581851710
  0.2500000000000000  0.2707133313754132  0.9690674418148292
  0.2500000000000000  0.9399559657448682  0.8640890448116608
  0.7500000000000000  0.0600440342551317  0.1359109551883464
  0.2500000000000000  0.5954098581735123  0.0043375783408205
  0.7500000000000000  0.4045901418264876  0.9956624216591796
  0.7500000000000000  0.0006752662304420  0.3323142052674829
  0.2500000000000000 -0.0006752662304422  0.6676857947325177
  0.7500000000000000  0.7006785977875343  0.2431450531535000
  0.2500000000000000  0.2993214022124662  0.7568549468464996
  0.7500000000000000  0.7942329515197676  0.8261160148819401
  0.2500000000000000  0.2057670484802329  0.1738839851180596
  0.2500000000000000  0.9027829718584236  0.0852851512370540
  0.7500000000000000  0.0972170281415765  0.9147148487629458
  0.2500000000000000  0.7625867952595352  0.4888530360038445
  0.7500000000000000  0.2374132047404647  0.5111469639961553
  0.2500000000000000  0.4704180907829658  0.3670801223251567
  0.7500000000000000  0.5295819092170339  0.6329198776748437
 
  0.00000000E+00  0.00000000E+00  0.00000000E+00
  0.00000000E+00  0.00000000E+00  0.00000000E+00
  0.00000000E+00  0.00000000E+00  0.00000000E+00
  0.00000000E+00  0.00000000E+00  0.00000000E+00
  0.00000000E+00  0.00000000E+00  0.00000000E+00
  0.00000000E+00  0.00000000E+00  0.00000000E+00
  0.00000000E+00  0.00000000E+00  0.00000000E+00
  0.00000000E+00  0.00000000E+00  0.00000000E+00
  0.00000000E+00  0.00000000E+00  0.00000000E+00
  0.00000000E+00  0.00000000E+00  0.00000000E+00
  0.00000000E+00  0.00000000E+00  0.00000000E+00
  0.00000000E+00  0.00000000E+00  0.00000000E+00
  0.00000000E+00  0.00000000E+00  0.00000000E+00
  0.00000000E+00  0.00000000E+00  0.00000000E+00
  0.00000000E+00  0.00000000E+00  0.00000000E+00
  0.00000000E+00  0.00000000E+00  0.00000000E+00
  0.00000000E+00  0.00000000E+00  0.00000000E+00
  0.00000000E+00  0.00000000E+00  0.00000000E+00
  0.00000000E+00  0.00000000E+00  0.00000000E+00
  0.00000000E+00  0.00000000E+00  0.00000000E+00
  0.00000000E+00  0.00000000E+00  0.00000000E+00
  0.00000000E+00  0.00000000E+00  0.00000000E+00
  0.00000000E+00  0.00000000E+00  0.00000000E+00
  0.00000000E+00  0.00000000E+00  0.00000000E+00
  0.00000000E+00  0.00000000E+00  0.00000000E+00
  0.00000000E+00  0.00000000E+00  0.00000000E+00
