Automatically generated mesh
62
Reciprocal lattice
    0.00000000000000    0.25000000000000    0.25000000000000             2
    0.33333333333333    0.25000000000000    0.25000000000000             2
   -0.33333333333333    0.25000000000000    0.25000000000000             2
   -0.00000000000000   -0.25000000000000    0.25000000000000             2
    0.33333333333333   -0.25000000000000    0.25000000000000             2
   -0.33333333333333   -0.25000000000000    0.25000000000000             2
0.000000	-0.000000	-0.500000	0.00
0.000000	-0.000000	-0.500000	0.00
0.100000	-0.100000	-0.400000	0.00
0.200000	-0.200000	-0.300000	0.00
0.300000	-0.300000	-0.200000	0.00
0.400000	-0.400000	-0.100000	0.00
0.500000	-0.500000	0.000000	0.00
0.500000	-0.400000	0.000000	0.00
0.500000	-0.300000	0.000000	0.00
0.500000	-0.200000	0.000000	0.00
0.500000	-0.100000	0.000000	0.00
0.500000	0.000000	0.000000	0.00
0.400000	0.100000	0.000000	0.00
0.300000	0.200000	0.000000	0.00
0.200000	0.300000	0.000000	0.00
0.100000	0.400000	0.000000	0.00
0.000000	0.500000	0.000000	0.00
0.000000	0.400000	0.000000	0.00
0.000000	0.300000	0.000000	0.00
0.000000	0.200000	0.000000	0.00
0.000000	0.100000	0.000000	0.00
0.000000	0.000000	-0.000000	0.00
-0.095658	0.095478	-0.116172	0.00
-0.191316	0.190956	-0.232344	0.00
-0.286974	0.286434	-0.348516	0.00
-0.382632	0.381912	-0.464688	0.00
-0.478290	0.477390	-0.580860	0.00
-0.478686	0.381236	-0.575024	0.00
-0.479082	0.285082	-0.569188	0.00
-0.479478	0.188928	-0.563352	0.00
-0.479874	0.092774	-0.557516	0.00
-0.480270	-0.003380	-0.551680	0.00
-0.471466	-0.078682	-0.441436	0.00
-0.462662	-0.153984	-0.331192	0.00
-0.453858	-0.229286	-0.220948	0.00
-0.445054	-0.304588	-0.110704	0.00
-0.436250	-0.379890	-0.000460	0.00
-0.349396	-0.400068	-0.094532	0.00
-0.262542	-0.420246	-0.188604	0.00
-0.175688	-0.440424	-0.282676	0.00
-0.088834	-0.460602	-0.376748	0.00
-0.001980	-0.480780	-0.470820	0.00
0.082114	-0.511814	-0.272066	0.00
0.166208	-0.542848	-0.073312	0.00
0.250302	-0.573882	0.125442	0.00
0.334396	-0.604916	0.324196	0.00
0.418490	-0.635950	0.522950	0.00
0.417698	-0.628260	0.334624	0.00
0.416906	-0.620570	0.146298	0.00
0.416114	-0.612880	-0.042028	0.00
0.415322	-0.605190	-0.230354	0.00
0.414530	-0.597500	-0.418680	0.00
0.331624	-0.478000	-0.434944	0.00
0.248718	-0.358500	-0.451208	0.00
0.165812	-0.239000	-0.467472	0.00
0.082906	-0.119500	-0.483736	0.00
