Li4 Sb8 S14                             
   1.00000000000000     
    -6.9531405238288269    0.0198440576944114   -0.1694489285172458
     1.9870244205396976    8.6565829715910780   -0.5170245159301949
    -0.6130283563332707   -1.2280871656604460  -10.7240251311061829
   Li   Sb   S 
     4     8    14
Direct
  0.3572090795945227  0.3319403343820617  0.1242035534253906
  0.3695911333813595  0.8345183068686465  0.6399063360121647
  0.6304088666186405  0.1654816931313536  0.3600936639878354
  0.6427909204054774  0.6680596656179384  0.8757964465746096
  0.0288439566178112  0.9468135477276437  0.3351669133408493
  0.1230053389472061  0.4633956871477399  0.8091956840263262
  0.7634424660421230  0.1227436612722951  0.0453742460274787
  0.5295110899703734  0.2485507049382952  0.7533030185941070
  0.2365575339578772  0.8772563387277051  0.9546257539725211
  0.9711560433821887  0.0531864522723634  0.6648330866591508
  0.8769946610527937  0.5366043128522603  0.1908043159736738
  0.4704889100296267  0.7514492950617049  0.2466969814058932
  0.8148392781151279  0.8333372858826937  0.1315841576524645
  0.6795581526515181  0.3715943347423686  0.9511712241169624
  0.4630859754918249  0.5096374918701813  0.7000838714316029
  0.2726879816459649  0.0423144949869117  0.5297440352230647
  0.0532338137837910  0.6732343117276538  0.3745587297274612
  0.3204418473484817  0.6284056652576315  0.0488287758830376
  0.4424610680116756  0.0759356847761020  0.1697985755212421
  0.9467661862162089  0.3267656882723460  0.6254412702725389
  0.5575389319883244  0.9240643152238981  0.8302014244787649
  0.9505722239542060  0.2707957694425822  0.2298810899233133
  0.0494277760457939  0.7292042305574177  0.7701189100766866
  0.7273120183540353  0.9576855050130884  0.4702559647769355
  0.5369140245081752  0.4903625081298190  0.2999161285683970
  0.1851607218848722  0.1666627141173064  0.8684158423475352
 
  0.00000000E+00  0.00000000E+00  0.00000000E+00
  0.00000000E+00  0.00000000E+00  0.00000000E+00
  0.00000000E+00  0.00000000E+00  0.00000000E+00
  0.00000000E+00  0.00000000E+00  0.00000000E+00
  0.00000000E+00  0.00000000E+00  0.00000000E+00
  0.00000000E+00  0.00000000E+00  0.00000000E+00
  0.00000000E+00  0.00000000E+00  0.00000000E+00
  0.00000000E+00  0.00000000E+00  0.00000000E+00
  0.00000000E+00  0.00000000E+00  0.00000000E+00
  0.00000000E+00  0.00000000E+00  0.00000000E+00
  0.00000000E+00  0.00000000E+00  0.00000000E+00
  0.00000000E+00  0.00000000E+00  0.00000000E+00
  0.00000000E+00  0.00000000E+00  0.00000000E+00
  0.00000000E+00  0.00000000E+00  0.00000000E+00
  0.00000000E+00  0.00000000E+00  0.00000000E+00
  0.00000000E+00  0.00000000E+00  0.00000000E+00
  0.00000000E+00  0.00000000E+00  0.00000000E+00
  0.00000000E+00  0.00000000E+00  0.00000000E+00
  0.00000000E+00  0.00000000E+00  0.00000000E+00
  0.00000000E+00  0.00000000E+00  0.00000000E+00
  0.00000000E+00  0.00000000E+00  0.00000000E+00
  0.00000000E+00  0.00000000E+00  0.00000000E+00
  0.00000000E+00  0.00000000E+00  0.00000000E+00
  0.00000000E+00  0.00000000E+00  0.00000000E+00
  0.00000000E+00  0.00000000E+00  0.00000000E+00
  0.00000000E+00  0.00000000E+00  0.00000000E+00
