K2 Sc6 Se10                             
   1.00000000000000     
    -0.0013560253381831   -3.8969165309942073   -0.0002331115089424
   -10.6786870461864964   -1.9522442504111959    0.0309447941826315
    -3.2806322370848187   -1.9502943611170829  -11.3039060636831650
   K    Sc   Se
     2     6    10
Direct
  0.7474091511111163  0.3288080168223852  0.1778092703566101
  0.2524073656942015  0.6711228441744408  0.8224039414752067
  0.4999387600167990  0.0000277754616546  0.0001001903364895
  0.5000612059826954  0.4999119497324152  0.4999914540878762
  0.8339589527941198  0.9435866430509187  0.3919921477251647
  0.1661924245999889  0.0562883388130997  0.6081321803797012
  0.0302855588595646  0.7256791894911745  0.2202341252488838
  0.9696068595057137  0.2744552406823692  0.7797132510321001
  0.9270817215359470  0.9944578631680225  0.1551017610466650
  0.0728090729759242  0.0058158090030830  0.8449144260339211
  0.6085283351097230  0.7279316931132526  0.0641623507129764
  0.3916409322911968  0.2721583892778781  0.9358156450913587
  0.4311541313403385  0.7589173036805429  0.3852708735420590
  0.5691701205848354  0.2409035283566720  0.6146642759387496
  0.2549291637816979  0.1163543849246222  0.3762243355614590
  0.7444354304626470  0.8834603298069138  0.6237677049172049
  0.0874293274723371  0.4787377863335288  0.3455386153461273
  0.9129634858811556  0.5213809141070316  0.6541634611674398
 
  0.00000000E+00  0.00000000E+00  0.00000000E+00
  0.00000000E+00  0.00000000E+00  0.00000000E+00
  0.00000000E+00  0.00000000E+00  0.00000000E+00
  0.00000000E+00  0.00000000E+00  0.00000000E+00
  0.00000000E+00  0.00000000E+00  0.00000000E+00
  0.00000000E+00  0.00000000E+00  0.00000000E+00
  0.00000000E+00  0.00000000E+00  0.00000000E+00
  0.00000000E+00  0.00000000E+00  0.00000000E+00
  0.00000000E+00  0.00000000E+00  0.00000000E+00
  0.00000000E+00  0.00000000E+00  0.00000000E+00
  0.00000000E+00  0.00000000E+00  0.00000000E+00
  0.00000000E+00  0.00000000E+00  0.00000000E+00
  0.00000000E+00  0.00000000E+00  0.00000000E+00
  0.00000000E+00  0.00000000E+00  0.00000000E+00
  0.00000000E+00  0.00000000E+00  0.00000000E+00
  0.00000000E+00  0.00000000E+00  0.00000000E+00
  0.00000000E+00  0.00000000E+00  0.00000000E+00
  0.00000000E+00  0.00000000E+00  0.00000000E+00
