K2 Sc6 Se10
1.0
  -0.0002148400000000   -3.5226384799999999    0.0000487600000000
  -9.6910486099999993   -1.7619042400000000    0.0096452300000000
  -2.9963047500000002   -1.7613608100000000  -10.1833573600000005
K Sc Se
2 6 10
direct
   0.7445510800000000    0.3335370000000000    0.1741199200000000 K+
   0.2553451300000000    0.6664732500000000    0.8259082100000000 K+
   0.5000011300000000    0.0000179300000000   -0.0000163900000000 Sc3+
   0.5000242600000000    0.4999707200000000    0.5000054600000000 Sc3+
   0.8355609500000000    0.9395456000000000    0.3889336800000000 Sc3+
   0.1644366100000000    0.0604754400000000    0.6110863400000000 Sc3+
   0.0208614900000000    0.7323505800000000    0.2250760800000000 Sc3+
   0.9791563599999999    0.2676447400000000    0.7749112000000000 Sc3+
   0.9274556300000000    0.9929197500000000    0.1522077700000000 Se2-
   0.0725665100000000    0.0070864700000000    0.8477680399999999 Se2-
   0.5967818200000000    0.7323074600000000    0.0739694100000000 Se2-
   0.4032474600000000    0.2676879200000000    0.9259959400000000 Se2-
   0.4271992300000000    0.7563598400000000    0.3891031400000000 Se2-
   0.5728342500000000    0.2436206800000000    0.6108944100000000 Se2-
   0.2564859400000000    0.1042161300000000    0.3823574700000000 Se2-
   0.7434867200000000    0.8958085900000000    0.6176772100000000 Se2-
   0.0832607000000000    0.4865897500000000    0.3466951400000000 Se2-
   0.9167467300000000    0.5133861500000000    0.6533069800000000 Se2-
