Li9 Bi1 S6
1.0
   7.4423088999999996   -0.0400520200000000   -4.2238834799999996
  -2.3562654300000001    7.0560573099999999   -4.2272257000000000
   0.1385273700000000    0.1867403700000000    8.9143095500000005
Li Bi S
9 1 6
direct
  -0.0046683100000000    0.5146185100000000    0.3093489700000000 Li+
   0.2050590700000000    0.0050180200000000    0.6911846300000000 Li+
   0.0000000000000000    0.0000000000000000    0.0000000000000000 Li+
   0.3135441000000000    0.7949153799999999    0.3088311800000000 Li+
   0.4851571700000000    0.6852777100000000    0.6904137100000000 Li+
   0.5148428300000000    0.3147222900000000    0.3095862900000000 Li+
   0.6864559000000000    0.2050846200000000    0.6911698200000000 Li+
   0.7949409300000000   -0.0050180200000000    0.3088153700000000 Li+
   0.0046683100000000    0.4853814900000000    0.6906510300000001 Li+
   0.5000000000000000    0.5000000000000000    0.0000000000000000 Bi3+
   0.2721843800000000    0.2719191700000000    0.5457439800000000 S2-
   0.1820277200000000    0.3526029900000000    0.0005919700000000 S2-
   0.3523001200000000    0.8182701300000000   -0.0001453600000000 S2-
   0.7278156200000000    0.7280808300000000    0.4542560200000000 S2-
   0.6476998800000000    0.1817298700000000    0.0001453600000000 S2-
   0.8179722800000000    0.6473970100000001   -0.0005919700000000 S2-
