Automatically generated mesh
47
Reciprocal lattice
    0.00000000000000    0.25000000000000    0.25000000000000             2
    0.20000000000000    0.25000000000000    0.25000000000000             4
    0.40000000000000    0.25000000000000    0.25000000000000             4
    0.00000000000000   -0.25000000000000    0.25000000000000             2
    0.20000000000000   -0.25000000000000    0.25000000000000             4
    0.40000000000000   -0.25000000000000    0.25000000000000             4
0.000000	-0.500000	-0.000000	0.00
0.000000	-0.500000	-0.000000	0.00
0.000000	-0.400000	-0.100000	0.00
0.000000	-0.300000	-0.200000	0.00
0.000000	-0.200000	-0.300000	0.00
0.000000	-0.100000	-0.400000	0.00
0.000000	0.000000	-0.500000	0.00
-0.100000	0.000000	-0.400000	0.00
-0.200000	0.000000	-0.300000	0.00
-0.300000	0.000000	-0.200000	0.00
-0.400000	0.000000	-0.100000	0.00
-0.500000	0.000000	0.000000	0.00
-0.400000	0.000000	0.000000	0.00
-0.300000	0.000000	0.000000	0.00
-0.200000	0.000000	0.000000	0.00
-0.100000	0.000000	0.000000	0.00
0.000000	0.000000	0.000000	0.00
0.000000	-0.102580	0.097582	0.00
0.000000	-0.205160	0.195164	0.00
0.000000	-0.307740	0.292746	0.00
0.000000	-0.410320	0.390328	0.00
0.000000	-0.512900	0.487910	0.00
0.100000	-0.410320	0.490328	0.00
0.200000	-0.307740	0.492746	0.00
0.300000	-0.205160	0.495164	0.00
0.400000	-0.102580	0.497582	0.00
0.500000	0.000000	0.500000	0.00
0.500000	-0.100000	0.400000	0.00
0.500000	-0.200000	0.300000	0.00
0.500000	-0.300000	0.200000	0.00
0.500000	-0.400000	0.100000	0.00
0.500000	-0.500000	-0.000000	0.00
0.500000	-0.302580	-0.102418	0.00
0.500000	-0.105160	-0.204836	0.00
0.500000	0.092260	-0.307254	0.00
0.500000	0.289680	-0.409672	0.00
0.500000	0.487100	-0.512090	0.00
0.400000	0.289680	-0.409672	0.00
0.300000	0.092260	-0.307254	0.00
0.200000	-0.105160	-0.204836	0.00
0.100000	-0.302580	-0.102418	0.00
