Na4 Bi8 S14                             
   1.00000000000000     
     4.0530903393035649    0.0000000000000000    0.0000000000000000
     0.0000000000000000   13.3843834643851629   -0.6587816780971190
     0.0000000000000000    0.3058078099632244   12.9762666268449713
   Na   Bi   S 
     4     8    14
Direct
  0.2500000000000000  0.5640975443248200  0.7799600976640290
  0.7500000000000000  0.4359024556751800  0.2200399023359709
  0.7500000000000000  0.8700705731922714  0.6047805569423238
  0.2500000000000000  0.1299294268077286  0.3952194430576760
  0.2500000000000000  0.9501617275361719  0.8587664654386943
  0.7500000000000000  0.0498382724638282  0.1412335345613053
  0.2500000000000000  0.8339408479253527  0.2971764610575542
  0.7500000000000000  0.1660591520746467  0.7028235389424459
  0.7500000000000000  0.7328959181190688  0.0196213211989624
  0.2500000000000000  0.2671040818809312  0.9803786788010372
  0.7500000000000000  0.6161990674869153  0.4422217987987920
  0.2500000000000000  0.3838009325130853  0.5577782012012082
  0.2500000000000000  0.4801680002301524  0.3700231559690769
  0.7500000000000000  0.5198319997698477  0.6299768440309228
  0.2500000000000000  0.6080879995518760 -0.0145638958280104
  0.7500000000000000  0.3919120004481237  0.0145638958280103
  0.7500000000000000 -0.0134823426283463  0.3383989558577695
  0.2500000000000000  0.0134823426283464  0.6616010441422310
  0.7500000000000000  0.8100263599632517  0.8190030562188509
  0.2500000000000000  0.1899736400367486  0.1809969437811496
  0.2500000000000000  0.7578478753718579  0.4951213078614861
  0.7500000000000000  0.2421521246281417  0.5048786921385139
  0.7500000000000000  0.6992925507511341  0.2412504348841312
  0.2500000000000000  0.3007074492488659  0.7587495651158687
  0.2500000000000000  0.9007085191355069  0.0846502262028518
  0.7500000000000000  0.0992914808644933  0.9153497737971481
 
  0.00000000E+00  0.00000000E+00  0.00000000E+00
  0.00000000E+00  0.00000000E+00  0.00000000E+00
  0.00000000E+00  0.00000000E+00  0.00000000E+00
  0.00000000E+00  0.00000000E+00  0.00000000E+00
  0.00000000E+00  0.00000000E+00  0.00000000E+00
  0.00000000E+00  0.00000000E+00  0.00000000E+00
  0.00000000E+00  0.00000000E+00  0.00000000E+00
  0.00000000E+00  0.00000000E+00  0.00000000E+00
  0.00000000E+00  0.00000000E+00  0.00000000E+00
  0.00000000E+00  0.00000000E+00  0.00000000E+00
  0.00000000E+00  0.00000000E+00  0.00000000E+00
  0.00000000E+00  0.00000000E+00  0.00000000E+00
  0.00000000E+00  0.00000000E+00  0.00000000E+00
  0.00000000E+00  0.00000000E+00  0.00000000E+00
  0.00000000E+00  0.00000000E+00  0.00000000E+00
  0.00000000E+00  0.00000000E+00  0.00000000E+00
  0.00000000E+00  0.00000000E+00  0.00000000E+00
  0.00000000E+00  0.00000000E+00  0.00000000E+00
  0.00000000E+00  0.00000000E+00  0.00000000E+00
  0.00000000E+00  0.00000000E+00  0.00000000E+00
  0.00000000E+00  0.00000000E+00  0.00000000E+00
  0.00000000E+00  0.00000000E+00  0.00000000E+00
  0.00000000E+00  0.00000000E+00  0.00000000E+00
  0.00000000E+00  0.00000000E+00  0.00000000E+00
  0.00000000E+00  0.00000000E+00  0.00000000E+00
  0.00000000E+00  0.00000000E+00  0.00000000E+00
