Na4 Al4 Se8                             
   1.00000000000000     
     6.8345375844095457    0.0000000000000000    0.0000000000000000
     0.0000000000000000    6.9666087200603020    0.0000000000000000
     0.0000000000000000    0.0000000000000000    9.2541590902822861
   Na   Al   Se
     4     4     8
Direct
  0.1114709439651907  0.9257466840407790  0.3796897626833584
  0.6114709439651907  0.0742533159592212  0.6203102373166416
  0.6114709439651907  0.5742533159592210  0.8796897626833584
  0.1114709439651907  0.4257466840407788  0.1203102373166415
  0.6207346667833727  0.5594089424302464  0.3742546038761315
  0.1207346667833729  0.4405910575697535  0.6257453961238686
  0.1207346667833729  0.9405910575697536  0.8742546038761314
  0.6207346667833727  0.0594089424302465  0.1257453961238686
  0.9725369091325531  0.5355644449694136  0.4012617188383282
  0.4725369091325531  0.4644355550305863  0.5987382811616715
  0.4725369091325531  0.9644355550305864  0.9012617188383285
  0.9725369091325531  0.0355644449694136  0.0987382811616717
  0.0302584901188881  0.6062312665463822  0.8444775770914902
  0.5302584901188880  0.3937687334536178  0.1555224229085098
  0.5302584901188880  0.8937687334536178  0.3444775770914902
  0.0302584901188880  0.1062312665463822  0.6555224229085098
 
  0.00000000E+00  0.00000000E+00  0.00000000E+00
  0.00000000E+00  0.00000000E+00  0.00000000E+00
  0.00000000E+00  0.00000000E+00  0.00000000E+00
  0.00000000E+00  0.00000000E+00  0.00000000E+00
  0.00000000E+00  0.00000000E+00  0.00000000E+00
  0.00000000E+00  0.00000000E+00  0.00000000E+00
  0.00000000E+00  0.00000000E+00  0.00000000E+00
  0.00000000E+00  0.00000000E+00  0.00000000E+00
  0.00000000E+00  0.00000000E+00  0.00000000E+00
  0.00000000E+00  0.00000000E+00  0.00000000E+00
  0.00000000E+00  0.00000000E+00  0.00000000E+00
  0.00000000E+00  0.00000000E+00  0.00000000E+00
  0.00000000E+00  0.00000000E+00  0.00000000E+00
  0.00000000E+00  0.00000000E+00  0.00000000E+00
  0.00000000E+00  0.00000000E+00  0.00000000E+00
  0.00000000E+00  0.00000000E+00  0.00000000E+00
