K2 Sc6 S10                              
   1.00000000000000     
     0.0062811386780739   -3.7214984030033653    0.0010384547370023
   -10.1860561790093413   -1.8436016554507837    0.0341645827282344
    -3.1222902900290288   -1.8524981233830109  -10.7641016635497806
   K    Sc   S 
     2     6    10
Direct
  0.7470542109112041  0.3264610962241494  0.1785914545602056
  0.2528607249106208  0.6735214642256832  0.8213998207527204
  0.4999157866685867 -0.0000249695623634  0.0000186576430182
  0.4999644278622998  0.5000086955391688  0.4999982792772406
  0.8341361134893059  0.9390121822731551  0.3928738058879227
  0.1660709229373277  0.0610556551709723  0.6071271317184884
  0.0290417416465961  0.7210029402963287  0.2168450615094861
  0.9708704428652476  0.2789851375990783  0.7831727813473121
  0.9295058580865853  0.9885078714988222  0.1557899621587532
  0.0704335164468209  0.0114750546294634  0.8442023381555392
  0.6015646190873744  0.7272578660967718  0.0622346397558545
  0.3983819333280283  0.2726819597169857  0.9377493142664871
  0.4286107712113983  0.7565369233450457  0.3810692670528721
  0.5713913140605987  0.2434695843440194  0.6189495361232982
  0.2577336936781708  0.1092997008738460  0.3769130484672321
  0.7425101335178506  0.8907624226140258  0.6230543567169285
  0.0872416434446268  0.4782218183391949  0.3456759555413276
  0.9127141458473592  0.5217625967756577  0.6543345990653070
 
  0.00000000E+00  0.00000000E+00  0.00000000E+00
  0.00000000E+00  0.00000000E+00  0.00000000E+00
  0.00000000E+00  0.00000000E+00  0.00000000E+00
  0.00000000E+00  0.00000000E+00  0.00000000E+00
  0.00000000E+00  0.00000000E+00  0.00000000E+00
  0.00000000E+00  0.00000000E+00  0.00000000E+00
  0.00000000E+00  0.00000000E+00  0.00000000E+00
  0.00000000E+00  0.00000000E+00  0.00000000E+00
  0.00000000E+00  0.00000000E+00  0.00000000E+00
  0.00000000E+00  0.00000000E+00  0.00000000E+00
  0.00000000E+00  0.00000000E+00  0.00000000E+00
  0.00000000E+00  0.00000000E+00  0.00000000E+00
  0.00000000E+00  0.00000000E+00  0.00000000E+00
  0.00000000E+00  0.00000000E+00  0.00000000E+00
  0.00000000E+00  0.00000000E+00  0.00000000E+00
  0.00000000E+00  0.00000000E+00  0.00000000E+00
  0.00000000E+00  0.00000000E+00  0.00000000E+00
  0.00000000E+00  0.00000000E+00  0.00000000E+00
