Li9 Sb1 Se6                             
   1.00000000000000     
     6.6234141106312787   -0.2910236842754837   -4.0962379168999279
    -2.0839329532967374    6.0218176579802183   -3.6343065319950836
    -0.2922919651154859    0.1696710295745918    7.8605844250199626
   Li   Sb   Se
     9     1     6
Direct
 -0.0278203924136130  0.4191121509168695  0.1234961791111209
  0.1805872876412760 -0.1413422630988446  0.7064797241490799
  0.0000000000000000  0.0000000000000000 -0.0000000000000000
  0.2963683543002076  0.0277988003688982  0.4407163906838155
  0.5820839941326700  0.6958416752829050  0.7230986812887673
  0.4179160058673302  0.3041583247170948  0.2769013187112330
  0.7036316456997924 -0.0277988003688980  0.5592836093161851
  0.8194127123587241  0.1413422630988443  0.2935202758509201
  0.0278203924136131  0.5808878490831310  0.8765038208888790
  0.5000000000000000  0.5000000000000000 -0.0000000000000000
  0.2359302877711948  0.3885018228616341  0.4917984327752420
  0.1033931340746847  0.2427017858364321 -0.1410873825642814
  0.3999955325072327  0.9059807383970516  0.1472163500265542
  0.7640697122288049  0.6114981771383659  0.5082015672247582
  0.6000044674927676  0.0940192616029484 -0.1472163500265542
  0.8966068659253149  0.7572982141635679  0.1410873825642815
 
  0.00000000E+00  0.00000000E+00  0.00000000E+00
  0.00000000E+00  0.00000000E+00  0.00000000E+00
  0.00000000E+00  0.00000000E+00  0.00000000E+00
  0.00000000E+00  0.00000000E+00  0.00000000E+00
  0.00000000E+00  0.00000000E+00  0.00000000E+00
  0.00000000E+00  0.00000000E+00  0.00000000E+00
  0.00000000E+00  0.00000000E+00  0.00000000E+00
  0.00000000E+00  0.00000000E+00  0.00000000E+00
  0.00000000E+00  0.00000000E+00  0.00000000E+00
  0.00000000E+00  0.00000000E+00  0.00000000E+00
  0.00000000E+00  0.00000000E+00  0.00000000E+00
  0.00000000E+00  0.00000000E+00  0.00000000E+00
  0.00000000E+00  0.00000000E+00  0.00000000E+00
  0.00000000E+00  0.00000000E+00  0.00000000E+00
  0.00000000E+00  0.00000000E+00  0.00000000E+00
  0.00000000E+00  0.00000000E+00  0.00000000E+00
