Automatically generated mesh
42
Reciprocal lattice
    0.00000000000000    0.25000000000000    0.25000000000000             2
    0.20000000000000    0.25000000000000    0.25000000000000             4
    0.40000000000000    0.25000000000000    0.25000000000000             4
    0.00000000000000   -0.25000000000000    0.25000000000000             2
    0.20000000000000   -0.25000000000000    0.25000000000000             4
    0.40000000000000   -0.25000000000000    0.25000000000000             4
0.000000	-0.500000	-0.000000	0.00
0.000000	-0.500000	-0.000000	0.00
0.000000	-0.400000	-0.100000	0.00
0.000000	-0.300000	-0.200000	0.00
0.000000	-0.200000	-0.300000	0.00
0.000000	-0.100000	-0.400000	0.00
0.000000	0.000000	-0.500000	0.00
-0.100000	0.000000	-0.400000	0.00
-0.200000	0.000000	-0.300000	0.00
-0.300000	0.000000	-0.200000	0.00
-0.400000	0.000000	-0.100000	0.00
-0.500000	0.000000	0.000000	0.00
-0.400000	0.000000	0.000000	0.00
-0.300000	0.000000	0.000000	0.00
-0.200000	0.000000	0.000000	0.00
-0.100000	0.000000	0.000000	0.00
0.000000	0.000000	0.000000	0.00
0.000000	-0.097290	0.096370	0.00
0.000000	-0.194580	0.192740	0.00
0.000000	-0.291870	0.289110	0.00
0.000000	-0.389160	0.385480	0.00
0.000000	-0.486450	0.481850	0.00
0.100000	-0.389160	0.485480	0.00
0.200000	-0.291870	0.489110	0.00
0.300000	-0.194580	0.492740	0.00
0.400000	-0.097290	0.496370	0.00
0.500000	-0.000000	0.500000	0.00
0.500000	-0.100000	0.300000	0.00
0.500000	-0.200000	0.100000	0.00
0.500000	-0.300000	-0.100000	0.00
0.500000	-0.400000	-0.300000	0.00
0.500000	-0.500000	-0.500000	0.00
0.400000	-0.500000	-0.400000	0.00
0.300000	-0.500000	-0.300000	0.00
0.200000	-0.500000	-0.200000	0.00
0.100000	-0.500000	-0.100000	0.00
