Automatically generated mesh
52
Reciprocal lattice
   -0.00000000000000   -0.00000000000000    0.25000000000000             2
    0.33333333333333   -0.00000000000000    0.25000000000000             4
   -0.33333333333333   -0.00000000000000    0.25000000000000             4
    0.33333333333333    0.33333333333333    0.25000000000000             2
   -0.33333333333333    0.33333333333333    0.25000000000000             4
   -0.33333333333333   -0.33333333333333    0.25000000000000             2
0.000000	-0.000000	0.500000	0.00
0.000000	0.000000	0.500000	0.00
0.000000	0.100000	0.400000	0.00
0.000000	0.200000	0.300000	0.00
0.000000	0.300000	0.200000	0.00
0.000000	0.400000	0.100000	0.00
0.000000	0.500000	0.000000	0.00
0.100000	0.500000	0.100000	0.00
0.200000	0.500000	0.200000	0.00
0.300000	0.500000	0.300000	0.00
0.400000	0.500000	0.400000	0.00
0.500000	0.500000	0.500000	0.00
0.400000	0.400000	0.400000	0.00
0.300000	0.300000	0.300000	0.00
0.200000	0.200000	0.200000	0.00
0.100000	0.100000	0.100000	0.00
0.000000	0.000000	0.000000	0.00
0.096392	0.000784	0.127526	0.00
0.192784	0.001568	0.255052	0.00
0.289176	0.002352	0.382578	0.00
0.385568	0.003136	0.510104	0.00
0.481960	0.003920	0.637630	0.00
0.469730	-0.078202	0.582578	0.00
0.457500	-0.160324	0.527526	0.00
0.445270	-0.242446	0.472474	0.00
0.433040	-0.324568	0.417422	0.00
0.420810	-0.406690	0.362370	0.00
0.239472	-0.422528	0.334844	0.00
0.058134	-0.438366	0.307318	0.00
-0.123204	-0.454204	0.279792	0.00
-0.304542	-0.470042	0.252266	0.00
-0.485880	-0.485880	0.224740	0.00
-0.508150	-0.469258	0.079792	0.00
-0.530420	-0.452636	-0.065156	0.00
-0.552690	-0.436014	-0.210104	0.00
-0.574960	-0.419392	-0.355052	0.00
-0.597230	-0.402770	-0.500000	0.00
-0.558338	-0.241662	-0.300000	0.00
-0.519446	-0.080554	-0.100000	0.00
-0.480554	0.080554	0.100000	0.00
-0.441662	0.241662	0.300000	0.00
-0.402770	0.402770	0.500000	0.00
-0.322216	0.322216	0.500000	0.00
-0.241662	0.241662	0.500000	0.00
-0.161108	0.161108	0.500000	0.00
-0.080554	0.080554	0.500000	0.00
