Ag4 Sb8 S14                             
   1.00000000000000     
     4.2528123970630016    5.1733236921628984    0.2633655911233334
    -4.2528123970630016    5.1733236921628984    0.2633655911233334
     0.0000000000000000    2.1541126097357308   15.4047964389325127
   Ag   Sb   S 
     4     8    14
Direct
  0.0825844639910510  0.5775300779288473  0.2101553582121349
  0.4224699220711526  0.9174155360089492  0.2898446417878653
  0.9174155360089492  0.4224699220711526  0.7898446417878652
  0.5775300779288473  0.0825844639910510  0.7101553582121348
  0.6538935449667013  0.6903164095385427  0.0226631383885947
  0.6903164095385427  0.6538935449667013  0.5226631383885950
  0.3461064550332992  0.3096835904614573  0.9773368616114050
  0.3096835904614573  0.3461064550332992  0.4773368616114054
  0.1211258404288822  0.9019845698176879  0.6056051413603440
  0.0980154301823121  0.8788741595711180  0.8943948586396560
  0.8788741595711180  0.0980154301823121  0.3943948586396552
  0.9019845698176879  0.1211258404288822  0.1056051413603445
  0.5362902548742942  0.2238171072303702  0.3433696812391775
  0.5749781541501550  0.9857443100684382  0.1319510009169962
  0.4637097451257060  0.7761828927696297  0.6566303187608225
  0.2238171072303702  0.5362902548742942  0.8433696812391775
  0.9635985414209810  0.0364014585790189  0.7500000000000000
  0.0364014585790189  0.9635985414209810  0.2500000000000000
  0.9857443100684382  0.5749781541501550  0.6319510009169962
  0.4250218458498453  0.0142556899315617  0.8680489990830038
  0.0142556899315617  0.4250218458498453  0.3680489990830040
  0.3425810841726223  0.7108549270295090  0.4380658250274299
  0.7108549270295090  0.3425810841726223  0.9380658250274297
  0.6574189158273775  0.2891450729704911  0.5619341749725703
  0.7761828927696297  0.4637097451257060  0.1566303187608224
  0.2891450729704911  0.6574189158273775  0.0619341749725701
 
  0.00000000E+00  0.00000000E+00  0.00000000E+00
  0.00000000E+00  0.00000000E+00  0.00000000E+00
  0.00000000E+00  0.00000000E+00  0.00000000E+00
  0.00000000E+00  0.00000000E+00  0.00000000E+00
  0.00000000E+00  0.00000000E+00  0.00000000E+00
  0.00000000E+00  0.00000000E+00  0.00000000E+00
  0.00000000E+00  0.00000000E+00  0.00000000E+00
  0.00000000E+00  0.00000000E+00  0.00000000E+00
  0.00000000E+00  0.00000000E+00  0.00000000E+00
  0.00000000E+00  0.00000000E+00  0.00000000E+00
  0.00000000E+00  0.00000000E+00  0.00000000E+00
  0.00000000E+00  0.00000000E+00  0.00000000E+00
  0.00000000E+00  0.00000000E+00  0.00000000E+00
  0.00000000E+00  0.00000000E+00  0.00000000E+00
  0.00000000E+00  0.00000000E+00  0.00000000E+00
  0.00000000E+00  0.00000000E+00  0.00000000E+00
  0.00000000E+00  0.00000000E+00  0.00000000E+00
  0.00000000E+00  0.00000000E+00  0.00000000E+00
  0.00000000E+00  0.00000000E+00  0.00000000E+00
  0.00000000E+00  0.00000000E+00  0.00000000E+00
  0.00000000E+00  0.00000000E+00  0.00000000E+00
  0.00000000E+00  0.00000000E+00  0.00000000E+00
  0.00000000E+00  0.00000000E+00  0.00000000E+00
  0.00000000E+00  0.00000000E+00  0.00000000E+00
  0.00000000E+00  0.00000000E+00  0.00000000E+00
  0.00000000E+00  0.00000000E+00  0.00000000E+00
