Li4 Sb8 S14                             
   1.00000000000000     
    -6.9531910147595832    0.0193626160238202   -0.1696985143094728
     1.9876246885866646    8.6552580654140385   -0.5173836490810798
    -0.6135396034315231   -1.2272837100760465  -10.7224215952342554
   Li   Sb   S 
     4     8    14
Direct
  0.3572101648716379  0.3319423756628850  0.1242074600562353
  0.3697518395743215  0.8345690828701613  0.6398570216262476
  0.6302481604256790  0.1654309171298393  0.3601429783737526
  0.6427898351283619  0.6680576243371150  0.8757925399437648
  0.0288321866556008  0.9468186444621942  0.3351776435079258
  0.1230424933954754  0.4633992448988601  0.8092106974715652
  0.7634919513596915  0.1227824522532761  0.0453873342539576
  0.5295339805421321  0.2485641609208757  0.7532973092917873
  0.2365080486403085  0.8772175477467238  0.9546126657460423
  0.9711678133443994  0.0531813555378059  0.6648223564920743
  0.8769575066045238  0.5366007551011404  0.1907893025284353
  0.4704660194578677  0.7514358390791239  0.2467026907082130
  0.8148552110099549  0.8333783528128558  0.1315815326734222
  0.6795652928690726  0.3715826993331253  0.9511679739499820
  0.4630696389438486  0.5096084645022918  0.7000832858839114
  0.2726937042338723  0.0422843239604904  0.5296939752469653
  0.0532191553871137  0.6732576988741491  0.3745389983382215
  0.3204347071309273  0.6284173006668752  0.0488320260500181
  0.4424111956327766  0.0759571255778932  0.1697929461558198
  0.9467808446128864  0.3267423011258513  0.6254610016617789
  0.5575888043672234  0.9240428744221066  0.8302070538441805
  0.9505187231678187  0.2707899818238786  0.2298813288309573
  0.0494812768321814  0.7292100181761213  0.7701186711690424
  0.7273062957661280  0.9577156760395098  0.4703060247530343
  0.5369303610561511  0.4903915354977077  0.2999167141160879
  0.1851447889900447  0.1666216471871435  0.8684184673265779
 
  0.00000000E+00  0.00000000E+00  0.00000000E+00
  0.00000000E+00  0.00000000E+00  0.00000000E+00
  0.00000000E+00  0.00000000E+00  0.00000000E+00
  0.00000000E+00  0.00000000E+00  0.00000000E+00
  0.00000000E+00  0.00000000E+00  0.00000000E+00
  0.00000000E+00  0.00000000E+00  0.00000000E+00
  0.00000000E+00  0.00000000E+00  0.00000000E+00
  0.00000000E+00  0.00000000E+00  0.00000000E+00
  0.00000000E+00  0.00000000E+00  0.00000000E+00
  0.00000000E+00  0.00000000E+00  0.00000000E+00
  0.00000000E+00  0.00000000E+00  0.00000000E+00
  0.00000000E+00  0.00000000E+00  0.00000000E+00
  0.00000000E+00  0.00000000E+00  0.00000000E+00
  0.00000000E+00  0.00000000E+00  0.00000000E+00
  0.00000000E+00  0.00000000E+00  0.00000000E+00
  0.00000000E+00  0.00000000E+00  0.00000000E+00
  0.00000000E+00  0.00000000E+00  0.00000000E+00
  0.00000000E+00  0.00000000E+00  0.00000000E+00
  0.00000000E+00  0.00000000E+00  0.00000000E+00
  0.00000000E+00  0.00000000E+00  0.00000000E+00
  0.00000000E+00  0.00000000E+00  0.00000000E+00
  0.00000000E+00  0.00000000E+00  0.00000000E+00
  0.00000000E+00  0.00000000E+00  0.00000000E+00
  0.00000000E+00  0.00000000E+00  0.00000000E+00
  0.00000000E+00  0.00000000E+00  0.00000000E+00
  0.00000000E+00  0.00000000E+00  0.00000000E+00
