Na4 Ga4 Se8                             
   1.00000000000000     
     6.9009937370062353    0.0000000000000000    0.0000000000000000
     0.0000000000000000    7.0061438265230169    0.0000000000000000
     0.0000000000000000    0.0000000000000000    9.3537691445820084
   Na   Ga   Se
     4     4     8
Direct
  0.1111777969622006  0.9232295194378040  0.3792395544537610
  0.6111777969622008  0.0767704805621959  0.6207604455462394
  0.6111777969622008  0.5767704805621960  0.8792395544537606
  0.1111777969622006  0.4232295194378042  0.1207604455462390
  0.6207480128178779  0.5587552392012681  0.3741947741387687
  0.1207480128178780  0.4412447607987318  0.6258052258612310
  0.1207480128178780  0.9412447607987319  0.8741947741387690
  0.6207480128178779  0.0587552392012682  0.1258052258612312
  0.9748746177644712  0.5362489207048436  0.3996189808982740
  0.4748746177644712  0.4637510792951562  0.6003810191017261
  0.4748746177644712  0.9637510792951564  0.8996189808982737
  0.9748746177644712  0.0362489207048437  0.1003810191017261
  0.0282005824554550  0.6037260540411177  0.8467792665083836
  0.5282005824554551  0.3962739459588822  0.1532207334916161
  0.5282005824554551  0.8962739459588823  0.3467792665083840
  0.0282005824554550  0.1037260540411178  0.6532207334916164
 
  0.00000000E+00  0.00000000E+00  0.00000000E+00
  0.00000000E+00  0.00000000E+00  0.00000000E+00
  0.00000000E+00  0.00000000E+00  0.00000000E+00
  0.00000000E+00  0.00000000E+00  0.00000000E+00
  0.00000000E+00  0.00000000E+00  0.00000000E+00
  0.00000000E+00  0.00000000E+00  0.00000000E+00
  0.00000000E+00  0.00000000E+00  0.00000000E+00
  0.00000000E+00  0.00000000E+00  0.00000000E+00
  0.00000000E+00  0.00000000E+00  0.00000000E+00
  0.00000000E+00  0.00000000E+00  0.00000000E+00
  0.00000000E+00  0.00000000E+00  0.00000000E+00
  0.00000000E+00  0.00000000E+00  0.00000000E+00
  0.00000000E+00  0.00000000E+00  0.00000000E+00
  0.00000000E+00  0.00000000E+00  0.00000000E+00
  0.00000000E+00  0.00000000E+00  0.00000000E+00
  0.00000000E+00  0.00000000E+00  0.00000000E+00
