Na4 Ga4 Se8
1.0
   6.2046547700000003    0.0000000000000000    0.0000000000000000
   0.0000000000000000    6.4956127600000002    0.0000000000000000
   0.0000000000000000    0.0000000000000000    7.8560090599999999
Na Ga Se
4 4 8
direct
   0.1178103000000000    0.9166394400000000    0.3777055500000000 Na+
   0.6178103000000000    0.0833605600000000    0.6222944500000001 Na+
   0.6178103000000000    0.5833605600000000    0.8777055499999999 Na+
   0.1178103000000000    0.4166394400000000    0.1222944500000000 Na+
   0.6213738200000000    0.5737584200000000    0.3738797900000000 Ga3+
   0.1213738200000000    0.4262415800000000    0.6261202100000000 Ga3+
   0.1213738200000000    0.9262415800000000    0.8738797900000000 Ga3+
   0.6213738200000000    0.0737584200000000    0.1261202100000000 Ga3+
   0.9854841200000000    0.5644350900000000    0.3864643100000000 Se2-
   0.4854841200000000    0.4355649100000000    0.6135356900000000 Se2-
   0.4854841200000000    0.9355649100000000    0.8864643100000000 Se2-
   0.9854841200000000    0.0644350900000000    0.1135356900000000 Se2-
   0.0103327700000000    0.5952470200000000    0.8612865600000000 Se2-
   0.5103327700000000    0.4047529800000000    0.1387134400000000 Se2-
   0.5103327700000000    0.9047529800000000    0.3612865600000000 Se2-
   0.0103327700000000    0.0952470200000000    0.6387134400000000 Se2-
