Li9 Al1 S6                              
   1.00000000000000     
     7.6465891999802844    0.6817025422248075   -0.1781469007196592
     4.4096179947363279    7.9370075169209562   -1.2178770718498466
     3.6937564343617586    1.4829484502291308    5.5685826450887195
   Al   Li   S 
     1     9     6
Direct
  0.4690799373837133  0.4193025263380689  0.5278682027353526
  0.5874044340407739  0.9947861471249048  0.4100665291191200
  0.9582516529197453  0.4984445076708882  0.0493424676051439
  0.9785263773023476  0.8777593566916911  0.6387487444098584
  0.0092240672680814  0.4509859965401832  0.4625208444175989
  0.9748865535369210  0.7788719667559814  0.0985707933390611
  0.2217477681074493  0.8584646763841308  0.1787473069686725
  0.2244067933208567  0.1559645104297595  0.9700565798798291
  0.2997865278223620  0.8671652423981453  0.7238616214752939
  0.6171048039818846  0.4023465722726626  0.9720081249440814
  0.4048038522056209  0.2572268724106511  0.2152445197006905
  0.5643611354298100  0.5864526004117909  0.1708123060067183
  0.6072236880776618  0.1079878510258023  0.6575056137187029
  0.5911088162445306  0.5534596333676576  0.6442107675075590
  0.0454970349318270  0.5889817423836771  0.6597726977323400
  0.0030865574263861  0.2137017977940127  0.7629618804399860
 
  0.00000000E+00  0.00000000E+00  0.00000000E+00
  0.00000000E+00  0.00000000E+00  0.00000000E+00
  0.00000000E+00  0.00000000E+00  0.00000000E+00
  0.00000000E+00  0.00000000E+00  0.00000000E+00
  0.00000000E+00  0.00000000E+00  0.00000000E+00
  0.00000000E+00  0.00000000E+00  0.00000000E+00
  0.00000000E+00  0.00000000E+00  0.00000000E+00
  0.00000000E+00  0.00000000E+00  0.00000000E+00
  0.00000000E+00  0.00000000E+00  0.00000000E+00
  0.00000000E+00  0.00000000E+00  0.00000000E+00
  0.00000000E+00  0.00000000E+00  0.00000000E+00
  0.00000000E+00  0.00000000E+00  0.00000000E+00
  0.00000000E+00  0.00000000E+00  0.00000000E+00
  0.00000000E+00  0.00000000E+00  0.00000000E+00
  0.00000000E+00  0.00000000E+00  0.00000000E+00
  0.00000000E+00  0.00000000E+00  0.00000000E+00
