Li16 Bi8 Se20                           
   1.00000000000000     
     4.0964220873001436    0.0000000000000000    0.0000000000000000
     0.0000000000000000   16.4143251946682049    0.0000000000000000
     0.0000000000000000    0.0000000000000000   16.8704748022946482
   Li   Bi   Se
    16     8    20
Direct
  0.2500000000000000  0.1588794724060605  0.9128791585933352
  0.2500000000000000  0.6588794724060604  0.5871208414066648
  0.7500000000000000  0.8411205275939396  0.0871208414066648
  0.2500000000000000  0.4858640569402836  0.9273501929112831
  0.7500000000000000  0.5141359430597169  0.0726498070887171
  0.2500000000000000  0.9858640569402831  0.5726498070887169
  0.7500000000000000  0.0141359430597166  0.4273501929112827
  0.2500000000000000  0.1931961550469951  0.2297807415045815
  0.7500000000000000  0.8068038449530045  0.7702192584954186
  0.2500000000000000  0.6931961550469955  0.2702192584954184
  0.7500000000000000  0.3068038449530047  0.7297807415045814
  0.2500000000000000  0.1830752307505985  0.6014156708607044
  0.7500000000000000  0.8169247692494015  0.3985843291392958
  0.2500000000000000  0.6830752307505985  0.8985843291392956
  0.7500000000000000  0.3169247692494015  0.1014156708607043
  0.7500000000000000  0.3411205275939395  0.4128791585933352
  0.7500000000000000  0.5647539093063055  0.7636811050277453
  0.2500000000000000  0.4352460906936943  0.2363188949722550
  0.2500000000000000  0.9352460906936945  0.2636811050277448
  0.7500000000000000  0.0647539093063058  0.7363188949722547
  0.2500000000000000  0.4257795647888313  0.5893858997419034
  0.7500000000000000  0.5742204352111686  0.4106141002580965
  0.2500000000000000  0.9257795647888314  0.9106141002580966
  0.7500000000000000  0.0742204352111685  0.0893858997419035
  0.2500000000000000  0.4380456512302646  0.4159557070651811
  0.7500000000000000  0.5619543487697359  0.5840442929348194
  0.2500000000000000  0.9380456512302641  0.0840442929348191
  0.7500000000000000  0.0619543487697356  0.9159557070651806
  0.7500000000000000  0.5800837474213449  0.9290383837250460
  0.2500000000000000  0.9199162525786551  0.4290383837250463
  0.7500000000000000  0.0800837474213449  0.5709616162749540
  0.2500000000000000  0.1925626540512571  0.7588192549905172
  0.7500000000000000  0.8074373459487429  0.2411807450094832
  0.2500000000000000  0.6925626540512571  0.7411807450094828
  0.7500000000000000  0.3074373459487431  0.2588192549905169
  0.2500000000000000  0.4270139751604894  0.7660226354647628
  0.7500000000000000  0.5729860248395108  0.2339773645352375
  0.2500000000000000  0.9270139751604892  0.7339773645352373
  0.7500000000000000  0.0729860248395107  0.2660226354647622
  0.7500000000000000  0.3027485244429675  0.5716779508724843
  0.2500000000000000  0.6972514755570325  0.4283220491275154
  0.2500000000000000  0.4199162525786552  0.0709616162749536
  0.2500000000000000  0.1972514755570324  0.0716779508724847
  0.7500000000000000  0.8027485244429675  0.9283220491275157
 
  0.00000000E+00  0.00000000E+00  0.00000000E+00
  0.00000000E+00  0.00000000E+00  0.00000000E+00
  0.00000000E+00  0.00000000E+00  0.00000000E+00
  0.00000000E+00  0.00000000E+00  0.00000000E+00
  0.00000000E+00  0.00000000E+00  0.00000000E+00
  0.00000000E+00  0.00000000E+00  0.00000000E+00
  0.00000000E+00  0.00000000E+00  0.00000000E+00
  0.00000000E+00  0.00000000E+00  0.00000000E+00
  0.00000000E+00  0.00000000E+00  0.00000000E+00
  0.00000000E+00  0.00000000E+00  0.00000000E+00
  0.00000000E+00  0.00000000E+00  0.00000000E+00
  0.00000000E+00  0.00000000E+00  0.00000000E+00
  0.00000000E+00  0.00000000E+00  0.00000000E+00
  0.00000000E+00  0.00000000E+00  0.00000000E+00
  0.00000000E+00  0.00000000E+00  0.00000000E+00
  0.00000000E+00  0.00000000E+00  0.00000000E+00
  0.00000000E+00  0.00000000E+00  0.00000000E+00
  0.00000000E+00  0.00000000E+00  0.00000000E+00
  0.00000000E+00  0.00000000E+00  0.00000000E+00
  0.00000000E+00  0.00000000E+00  0.00000000E+00
  0.00000000E+00  0.00000000E+00  0.00000000E+00
  0.00000000E+00  0.00000000E+00  0.00000000E+00
  0.00000000E+00  0.00000000E+00  0.00000000E+00
  0.00000000E+00  0.00000000E+00  0.00000000E+00
  0.00000000E+00  0.00000000E+00  0.00000000E+00
  0.00000000E+00  0.00000000E+00  0.00000000E+00
  0.00000000E+00  0.00000000E+00  0.00000000E+00
  0.00000000E+00  0.00000000E+00  0.00000000E+00
  0.00000000E+00  0.00000000E+00  0.00000000E+00
  0.00000000E+00  0.00000000E+00  0.00000000E+00
  0.00000000E+00  0.00000000E+00  0.00000000E+00
  0.00000000E+00  0.00000000E+00  0.00000000E+00
  0.00000000E+00  0.00000000E+00  0.00000000E+00
  0.00000000E+00  0.00000000E+00  0.00000000E+00
  0.00000000E+00  0.00000000E+00  0.00000000E+00
  0.00000000E+00  0.00000000E+00  0.00000000E+00
  0.00000000E+00  0.00000000E+00  0.00000000E+00
  0.00000000E+00  0.00000000E+00  0.00000000E+00
  0.00000000E+00  0.00000000E+00  0.00000000E+00
  0.00000000E+00  0.00000000E+00  0.00000000E+00
  0.00000000E+00  0.00000000E+00  0.00000000E+00
  0.00000000E+00  0.00000000E+00  0.00000000E+00
  0.00000000E+00  0.00000000E+00  0.00000000E+00
  0.00000000E+00  0.00000000E+00  0.00000000E+00
