Li4 Al4 S8
1.0
   6.5895737600000004    0.0000000000000000    0.0000000000000000
   0.0000000000000000    6.8695323699999999    0.0000000000000000
   0.0000000000000000    0.0000000000000000    8.2642802900000003
Li Al S
4 4 8
direct
   0.1196089000000000    0.9136093800000000    0.6215858399999999 Li+
   0.6196089000000000    0.0863906200000000    0.3784141600000000 Li+
   0.6196089000000000    0.5863906200000000    0.1215858400000000 Li+
   0.1196089000000000    0.4136093800000000    0.8784141600000001 Li+
   0.6227308900000000    0.5733452600000000    0.6258037700000000 Al3+
   0.1227308900000000    0.4266547400000000    0.3741962300000000 Al3+
   0.1227308900000000    0.9266547400000000    0.1258037700000000 Al3+
   0.6227308900000000    0.0733452600000000    0.8741962300000000 Al3+
   0.5058338500000000    0.9066079900000000    0.6344397100000000 S2-
   0.0058338500000000    0.0933920100000000    0.3655602900000000 S2-
   0.0058338500000000    0.5933920100000000    0.1344397100000000 S2-
   0.5058338500000000    0.4066079900000000    0.8655602900000000 S2-
   0.9898253500000000    0.0667191900000000    0.8811924300000000 S2-
   0.4898263500000000    0.9332808100000000    0.1188075700000000 S2-
   0.4898263500000000    0.4332808100000000    0.3811924300000000 S2-
   0.9898253500000000    0.5667191900000000    0.6188075700000000 S2-
