Automatically generated mesh
42
Reciprocal lattice
    0.00000000000000    0.25000000000000    0.25000000000000             2
    0.20000000000000    0.25000000000000    0.25000000000000             4
    0.40000000000000    0.25000000000000    0.25000000000000             4
    0.00000000000000   -0.25000000000000    0.25000000000000             2
    0.20000000000000   -0.25000000000000    0.25000000000000             4
    0.40000000000000   -0.25000000000000    0.25000000000000             4
0.000000	-0.500000	0.000000	0.00
0.000000	-0.500000	0.000000	0.00
0.000000	-0.400000	-0.100000	0.00
0.000000	-0.300000	-0.200000	0.00
0.000000	-0.200000	-0.300000	0.00
0.000000	-0.100000	-0.400000	0.00
0.000000	0.000000	-0.500000	0.00
-0.100000	0.000000	-0.400000	0.00
-0.200000	0.000000	-0.300000	0.00
-0.300000	0.000000	-0.200000	0.00
-0.400000	0.000000	-0.100000	0.00
-0.500000	0.000000	0.000000	0.00
-0.400000	0.000000	0.000000	0.00
-0.300000	0.000000	0.000000	0.00
-0.200000	0.000000	0.000000	0.00
-0.100000	0.000000	0.000000	0.00
0.000000	0.000000	0.000000	0.00
0.000000	-0.100000	0.100000	0.00
0.000000	-0.200000	0.200000	0.00
0.000000	-0.300000	0.300000	0.00
0.000000	-0.400000	0.400000	0.00
0.000000	-0.500000	0.500000	0.00
0.100000	-0.400000	0.500000	0.00
0.200000	-0.300000	0.500000	0.00
0.300000	-0.200000	0.500000	0.00
0.400000	-0.100000	0.500000	0.00
0.500000	0.000000	0.500000	0.00
0.500000	-0.091722	0.306830	0.00
0.500000	-0.183444	0.113660	0.00
0.500000	-0.275166	-0.079510	0.00
0.500000	-0.366888	-0.272680	0.00
0.500000	-0.458610	-0.465850	0.00
0.400000	-0.466888	-0.372680	0.00
0.300000	-0.475166	-0.279510	0.00
0.200000	-0.483444	-0.186340	0.00
0.100000	-0.491722	-0.093170	0.00
