pymatgen with grid density = 807 / number of atoms
0
Monkhorst
6 2 2
