K4 Bi8 Se14                             
   1.00000000000000     
     4.2471932838448785    0.0000000000000000    0.0000000000000000
     0.0000000000000000   13.1110789221166684   -0.1101104083248833
     0.0000000000000000    0.6158591594683085   15.0897980480209402
   K    Bi   Se
     4     8    14
Direct
  0.2500000000000000  0.5609110538698789  0.8151716790443636
  0.7500000000000000  0.4390889461301208  0.1848283209556364
  0.7500000000000000  0.8254493171306089  0.6239128787203949
  0.2500000000000000  0.1745506828693911  0.3760871212796047
  0.2500000000000000  0.8367269207294673  0.2817348726329615
  0.7500000000000000  0.1632730792705325  0.7182651273670390
  0.7500000000000000  0.6076146497078284  0.4309147864061038
  0.2500000000000000  0.3923853502921719  0.5690852135938963
  0.7500000000000000  0.7293238676455519  0.0460144623399668
  0.2500000000000000  0.2706761323544483  0.9539855376600332
  0.2500000000000000  0.9398873239766667  0.8733346389678140
  0.7500000000000000  0.0601126760233330  0.1266653610321930
  0.2500000000000000  0.5905147379985575  0.0330494736453237
  0.7500000000000000  0.4094852620014419  0.9669505263546762
  0.7500000000000000  0.9987196052988743  0.3068357114066403
  0.2500000000000000  0.0012803947011258  0.6931642885933597
  0.7500000000000000  0.6913657250202703  0.2417750367943932
  0.2500000000000000  0.3086342749797297  0.7582249632056068
  0.7500000000000000  0.7844499924799139  0.8534923625269404
  0.2500000000000000  0.2155500075200864  0.1465076374730599
  0.2500000000000000  0.9054023666472637  0.0854883159348637
  0.7500000000000000  0.0945976333527365  0.9145116840651361
  0.2500000000000000  0.7618115085476387  0.4627686694482568
  0.7500000000000000  0.2381884914523612  0.5372313305517431
  0.2500000000000000  0.4547860955029172  0.3846173651934916
  0.7500000000000000  0.5452139044970827  0.6153826348065081
 
  0.00000000E+00  0.00000000E+00  0.00000000E+00
  0.00000000E+00  0.00000000E+00  0.00000000E+00
  0.00000000E+00  0.00000000E+00  0.00000000E+00
  0.00000000E+00  0.00000000E+00  0.00000000E+00
  0.00000000E+00  0.00000000E+00  0.00000000E+00
  0.00000000E+00  0.00000000E+00  0.00000000E+00
  0.00000000E+00  0.00000000E+00  0.00000000E+00
  0.00000000E+00  0.00000000E+00  0.00000000E+00
  0.00000000E+00  0.00000000E+00  0.00000000E+00
  0.00000000E+00  0.00000000E+00  0.00000000E+00
  0.00000000E+00  0.00000000E+00  0.00000000E+00
  0.00000000E+00  0.00000000E+00  0.00000000E+00
  0.00000000E+00  0.00000000E+00  0.00000000E+00
  0.00000000E+00  0.00000000E+00  0.00000000E+00
  0.00000000E+00  0.00000000E+00  0.00000000E+00
  0.00000000E+00  0.00000000E+00  0.00000000E+00
  0.00000000E+00  0.00000000E+00  0.00000000E+00
  0.00000000E+00  0.00000000E+00  0.00000000E+00
  0.00000000E+00  0.00000000E+00  0.00000000E+00
  0.00000000E+00  0.00000000E+00  0.00000000E+00
  0.00000000E+00  0.00000000E+00  0.00000000E+00
  0.00000000E+00  0.00000000E+00  0.00000000E+00
  0.00000000E+00  0.00000000E+00  0.00000000E+00
  0.00000000E+00  0.00000000E+00  0.00000000E+00
  0.00000000E+00  0.00000000E+00  0.00000000E+00
  0.00000000E+00  0.00000000E+00  0.00000000E+00
