Li4 Bi8 S14                             
   1.00000000000000     
     3.9973580327214764    0.0000000000000000    0.0000000000000000
     0.0000000000000000   13.3658084943297961   -0.9458095784449374
     0.0000000000000000   -0.1078585657848271   12.3003435731164021
   Li   Bi   S 
     4     8    14
Direct
  0.2500000000000000  0.5548004551862963  0.7587425012009578
  0.7500000000000000  0.4451995448137034  0.2412574987990422
  0.7500000000000000  0.8852421703519272  0.6014998782036444
  0.2500000000000000  0.1147578296480726  0.3985001217963556
  0.2500000000000000  0.9520460714678308  0.8503920023220344
  0.7500000000000000  0.0479539285321693  0.1496079976779657
  0.2500000000000000  0.8308923569420139  0.2985185029516526
  0.7500000000000000  0.1691076430579863  0.7014814970483471
  0.7500000000000000  0.7272052945354396 -0.0029048027826116
  0.2500000000000000  0.2727947054645604  0.0029048027826112
  0.7500000000000000  0.6220984231247789  0.4508184197247028
  0.2500000000000000  0.3779015768752216  0.5491815802752971
  0.2500000000000000  0.4816822069618468  0.3614052487445102
  0.7500000000000000  0.5183177930381531  0.6385947512554898
  0.2500000000000000  0.6028012005855524 -0.0524323848886064
  0.7500000000000000  0.3971987994144476  0.0524323848886063
  0.7500000000000000 -0.0119758529369902  0.3550446998004141
  0.2500000000000000  0.0119758529369901  0.6449553001995859
  0.7500000000000000  0.8140631765186993  0.7957634310291124
  0.2500000000000000  0.1859368234813007  0.2042365689708880
  0.2500000000000000  0.7642944768725380  0.5094739731368298
  0.7500000000000000  0.2357055231274620  0.4905260268631700
  0.7500000000000000  0.6942107248886124  0.2358202676454914
  0.2500000000000000  0.3057892751113875  0.7641797323545086
  0.2500000000000000  0.8947313642028828  0.0805406803093283
  0.7500000000000000  0.1052686357971175  0.9194593196906714
 
  0.00000000E+00  0.00000000E+00  0.00000000E+00
  0.00000000E+00  0.00000000E+00  0.00000000E+00
  0.00000000E+00  0.00000000E+00  0.00000000E+00
  0.00000000E+00  0.00000000E+00  0.00000000E+00
  0.00000000E+00  0.00000000E+00  0.00000000E+00
  0.00000000E+00  0.00000000E+00  0.00000000E+00
  0.00000000E+00  0.00000000E+00  0.00000000E+00
  0.00000000E+00  0.00000000E+00  0.00000000E+00
  0.00000000E+00  0.00000000E+00  0.00000000E+00
  0.00000000E+00  0.00000000E+00  0.00000000E+00
  0.00000000E+00  0.00000000E+00  0.00000000E+00
  0.00000000E+00  0.00000000E+00  0.00000000E+00
  0.00000000E+00  0.00000000E+00  0.00000000E+00
  0.00000000E+00  0.00000000E+00  0.00000000E+00
  0.00000000E+00  0.00000000E+00  0.00000000E+00
  0.00000000E+00  0.00000000E+00  0.00000000E+00
  0.00000000E+00  0.00000000E+00  0.00000000E+00
  0.00000000E+00  0.00000000E+00  0.00000000E+00
  0.00000000E+00  0.00000000E+00  0.00000000E+00
  0.00000000E+00  0.00000000E+00  0.00000000E+00
  0.00000000E+00  0.00000000E+00  0.00000000E+00
  0.00000000E+00  0.00000000E+00  0.00000000E+00
  0.00000000E+00  0.00000000E+00  0.00000000E+00
  0.00000000E+00  0.00000000E+00  0.00000000E+00
  0.00000000E+00  0.00000000E+00  0.00000000E+00
  0.00000000E+00  0.00000000E+00  0.00000000E+00
