K4 Sb4 Se8                              
   1.00000000000000     
     6.6219795852185577    0.0590115236988226    0.1032446887669978
    -1.6140360359265955    6.5675632836486342    0.0191199832588960
    -2.2328349708700141   -2.7030251306588697   12.2041240251613239
   K    Sb   Se
     4     4     8
Direct
  0.5661123813030399  0.3135089884677429  0.1551811199711924
  0.9154878850557226  0.7325219138079124  0.5884407493256730
  0.4338876186969603  0.6864910115322569  0.8448188800288076
  0.0845121149442773  0.2674780861920873  0.4115592506743269
  0.4181087441273911  0.8127110596782603  0.3492219588641678
  0.0123679294005589  0.2115665480200400  0.9106778718672122
  0.9876320705994409  0.7884334519799596  0.0893221281327877
  0.5818912558726089  0.1872889403217397  0.6507780411358325
  0.0094044470662304  0.7546506291094111  0.3237340199060840
  0.9905955529337699  0.2453493708905884  0.6762659800939163
  0.6129702024047140  0.2148958850548360  0.8786748720606850
  0.5644910448487838  0.2119187907089898  0.4084483409508337
  0.3870297975952862  0.7851041149451641  0.1213251279393150
  0.4355089551512160  0.7880812092910108  0.5915516590491663
  0.0319788411105051  0.1857329810267362  0.1351969580949798
  0.9680211588894949  0.8142670189732639  0.8648030419050198
 
  0.00000000E+00  0.00000000E+00  0.00000000E+00
  0.00000000E+00  0.00000000E+00  0.00000000E+00
  0.00000000E+00  0.00000000E+00  0.00000000E+00
  0.00000000E+00  0.00000000E+00  0.00000000E+00
  0.00000000E+00  0.00000000E+00  0.00000000E+00
  0.00000000E+00  0.00000000E+00  0.00000000E+00
  0.00000000E+00  0.00000000E+00  0.00000000E+00
  0.00000000E+00  0.00000000E+00  0.00000000E+00
  0.00000000E+00  0.00000000E+00  0.00000000E+00
  0.00000000E+00  0.00000000E+00  0.00000000E+00
  0.00000000E+00  0.00000000E+00  0.00000000E+00
  0.00000000E+00  0.00000000E+00  0.00000000E+00
  0.00000000E+00  0.00000000E+00  0.00000000E+00
  0.00000000E+00  0.00000000E+00  0.00000000E+00
  0.00000000E+00  0.00000000E+00  0.00000000E+00
  0.00000000E+00  0.00000000E+00  0.00000000E+00
