K4 Sb4 Se8
1.0
   6.8015625799999997    0.0137391900000000    0.0030344000000000
  -1.7032276300000000    6.5359932399999998    0.0036892600000000
  -2.4583249899999999   -2.7451776099999998   12.1956796900000004
K Sb Se
4 4 8
direct
   0.5645651800000000    0.3279268000000000    0.1532197300000000 K+
   0.8936226900000001    0.7164367000000000    0.5798638200000000 K+
   0.4354348200000000    0.6720732000000000    0.8467802700000000 K+
   0.1063773100000000    0.2835633000000000    0.4201361800000000 K+
   0.4099722600000000    0.8060186000000000    0.3478950000000000 Sb3+
   0.0122054900000000    0.2164489000000000    0.9146389900000000 Sb3+
   0.9877945100000000    0.7835510999999999    0.0853610100000000 Sb3+
   0.5900277400000000    0.1939814000000000    0.6521050000000000 Sb3+
   0.0143856900000000    0.7568651900000000    0.3182139200000000 Se2-
   0.9856143100000000    0.2431348100000000    0.6817860800000000 Se2-
   0.6231744299999999    0.2101411000000000    0.8759912800000000 Se2-
   0.5760189800000000    0.2015744700000000    0.4083826900000000 Se2-
   0.3768255700000000    0.7898589000000000    0.1240087200000000 Se2-
   0.4239810200000000    0.7984255300000000    0.5916173100000000 Se2-
   0.0207944500000000    0.1761481900000000    0.1340033300000000 Se2-
   0.9792055500000000    0.8238518100000000    0.8659966700000000 Se2-
