Li4 Sb8 Se14                            
   1.00000000000000     
    -7.1130663274275481   -0.1118382507279280   -0.0788435037229708
     2.2020923632428779    9.0042204615607773   -0.5690870769775963
    -0.4958317705263913   -1.2849561360773898  -11.2010118430111962
   Li   Sb   Se
     4     8    14
Direct
  0.3404635348723860  0.3305930901573257  0.1342657281458716
  0.3681272011950921  0.8381533905664168  0.6404919639331265
  0.6318727988049081  0.1618466094335829  0.3595080360668731
  0.6595364651276138  0.6694069098426745  0.8657342718541288
  0.0323292324964703  0.9582567384550633  0.3320782198878658
  0.1185738487540317  0.4565506891701120  0.8100022507189705
  0.7676006011457788  0.1332610390897905  0.0480138090487037
  0.5281319656455598  0.2457736468452548  0.7537624027890965
  0.2323993988542210  0.8667389609102096  0.9519861909512968
  0.9676707675035300  0.0417432615449364  0.6679217801121349
  0.8814261512459685  0.5434493108298882  0.1899977492810294
  0.4718680343544403  0.7542263531547443  0.2462375972109034
  0.8390034482191947  0.8392636396085036  0.1219672665085688
  0.6914280356349710  0.3841155868347005  0.9571588536040280
  0.4619547984039412  0.5065054819025160  0.6904166828497960
  0.2922158449594367  0.0624629684911916  0.5371512437892925
  0.0836775176443151  0.6879372425440919  0.3763547965795253
  0.3085719643650290  0.6158844131652995  0.0428411463959722
  0.4266892109648055  0.0676720256891804  0.1712188963903822
  0.9163224823556851  0.3120627574559083  0.6236452034204756
  0.5733107890351942  0.9323279743108202  0.8287811036096184
  0.9639785164810032  0.2770580993523040  0.2379696052249480
  0.0360214835189970  0.7229419006476965  0.7620303947750515
  0.7077841550405635  0.9375370315088082  0.4628487562107071
  0.5380452015960587  0.4934945180974832  0.3095833171502038
  0.1609965517808051  0.1607363603914965  0.8780327334914314
 
  0.00000000E+00  0.00000000E+00  0.00000000E+00
  0.00000000E+00  0.00000000E+00  0.00000000E+00
  0.00000000E+00  0.00000000E+00  0.00000000E+00
  0.00000000E+00  0.00000000E+00  0.00000000E+00
  0.00000000E+00  0.00000000E+00  0.00000000E+00
  0.00000000E+00  0.00000000E+00  0.00000000E+00
  0.00000000E+00  0.00000000E+00  0.00000000E+00
  0.00000000E+00  0.00000000E+00  0.00000000E+00
  0.00000000E+00  0.00000000E+00  0.00000000E+00
  0.00000000E+00  0.00000000E+00  0.00000000E+00
  0.00000000E+00  0.00000000E+00  0.00000000E+00
  0.00000000E+00  0.00000000E+00  0.00000000E+00
  0.00000000E+00  0.00000000E+00  0.00000000E+00
  0.00000000E+00  0.00000000E+00  0.00000000E+00
  0.00000000E+00  0.00000000E+00  0.00000000E+00
  0.00000000E+00  0.00000000E+00  0.00000000E+00
  0.00000000E+00  0.00000000E+00  0.00000000E+00
  0.00000000E+00  0.00000000E+00  0.00000000E+00
  0.00000000E+00  0.00000000E+00  0.00000000E+00
  0.00000000E+00  0.00000000E+00  0.00000000E+00
  0.00000000E+00  0.00000000E+00  0.00000000E+00
  0.00000000E+00  0.00000000E+00  0.00000000E+00
  0.00000000E+00  0.00000000E+00  0.00000000E+00
  0.00000000E+00  0.00000000E+00  0.00000000E+00
  0.00000000E+00  0.00000000E+00  0.00000000E+00
  0.00000000E+00  0.00000000E+00  0.00000000E+00
