Li9 Sb1 Se6
1.0
   7.4028716899999996   -0.0396607500000000   -4.2164187100000001
  -2.3646063499999999    7.0130461600000000   -4.2092858299999998
   0.1752693500000000    0.2520273700000000    8.9199777299999994
Li Sb Se
9 1 6
direct
   0.9931565100000000    0.5156904000000000    0.3083521900000000 Li+
   0.2072009900000000    0.0063510700000000    0.6917119300000000 Li+
   0.0000000000000000   -0.0000000000000000    0.0000000000000000 Li+
   0.3150944800000000    0.7923303600000000    0.3078760000000000 Li+
   0.4839680800000000    0.6844197500000000    0.6909347700000000 Li+
   0.5160319200000000    0.3155802500000000    0.3090652300000000 Li+
   0.6849055200000000    0.2076696400000000    0.6921240000000000 Li+
   0.7927990100000000    0.9936489300000000    0.3082880700000000 Li+
   0.0068434900000000    0.4843096000000000    0.6916478100000000 Li+
   0.5000000000000000    0.5000000000000000    0.0000000000000000 Sb3+
   0.2796275900000000    0.2796412600000000    0.5581965700000000 Se2-
   0.1855085800000000    0.3542029800000000   -0.0001480400000000 Se2-
   0.3547797400000000    0.8145524900000000   -0.0002878200000000 Se2-
   0.7203724100000000    0.7203587400000000    0.4418034300000000 Se2-
   0.6452202600000000    0.1854475100000000    0.0002878200000000 Se2-
   0.8144914200000000    0.6457970200000001    0.0001480400000000 Se2-
