Li4 Sb4 Se8
1.0
   6.4569994199999998    0.7907541400000000   -0.9881541900000000
  -0.8651498399999999    6.4702543800000001   -0.5355658400000000
   0.1472696800000000    1.0545169500000000   12.4101464299999993
Li Sb Se
4 4 8
direct
   0.5169612700000000    0.7378177100000000    0.8808075700000000 Li+
   0.4830387300000000    0.2621822900000000    0.1191924300000000 Li+
   0.9836747600000000    0.7374314800000000    0.6194624399999999 Li+
   0.0163252400000000    0.2625685200000000    0.3805375600000000 Li+
   0.0373338800000000    0.7957128200000000    0.1211958400000000 Sb3+
   0.9626661200000000    0.2042871800000000    0.8788041599999999 Sb3+
   0.4630836800000000    0.7952706500000000    0.3791510000000000 Sb3+
   0.5369163200000000    0.2047293500000000    0.6208490000000000 Sb3+
   0.5165699000000000    0.1855852000000000    0.3844600400000000 Se2-
   0.4834301000000000    0.8144148000000000    0.6155399600000000 Se2-
   0.9826046600000000    0.1860225300000000    0.1153171600000000 Se2-
   0.0173953400000000    0.8139774700000000    0.8846828400000000 Se2-
   0.9317884000000000    0.2302495400000000    0.6447458100000000 Se2-
   0.0682116000000000    0.7697504600000000    0.3552541900000000 Se2-
   0.5677911200000000    0.2306746600000000    0.8549714100000000 Se2-
   0.4322088800000000    0.7693253400000000    0.1450285900000000 Se2-
