Automatically generated mesh
67
Reciprocal lattice
    0.00000000000000    0.25000000000000    0.25000000000000             2
    0.33333333333333    0.25000000000000    0.25000000000000             2
   -0.33333333333333    0.25000000000000    0.25000000000000             2
    0.00000000000000   -0.25000000000000    0.25000000000000             2
    0.33333333333333   -0.25000000000000    0.25000000000000             2
   -0.33333333333333   -0.25000000000000    0.25000000000000             2
0.000000	-0.000000	-0.500000	0.00
0.000000	-0.000000	-0.500000	0.00
0.100000	-0.100000	-0.400000	0.00
0.200000	-0.200000	-0.300000	0.00
0.300000	-0.300000	-0.200000	0.00
0.400000	-0.400000	-0.100000	0.00
0.500000	-0.500000	0.000000	0.00
0.500000	-0.400000	0.000000	0.00
0.500000	-0.300000	0.000000	0.00
0.500000	-0.200000	0.000000	0.00
0.500000	-0.100000	0.000000	0.00
0.500000	0.000000	0.000000	0.00
0.400000	0.100000	0.000000	0.00
0.300000	0.200000	0.000000	0.00
0.200000	0.300000	0.000000	0.00
0.100000	0.400000	0.000000	0.00
0.000000	0.500000	-0.000000	0.00
0.000000	0.500000	-0.100000	0.00
0.000000	0.500000	-0.200000	0.00
0.000000	0.500000	-0.300000	0.00
0.000000	0.500000	-0.400000	0.00
-0.000000	0.500000	-0.500000	0.00
-0.100000	0.500000	-0.400000	0.00
-0.200000	0.500000	-0.300000	0.00
-0.300000	0.500000	-0.200000	0.00
-0.400000	0.500000	-0.100000	0.00
-0.500000	0.500000	0.000000	0.00
-0.500000	0.500000	-0.100000	0.00
-0.500000	0.500000	-0.200000	0.00
-0.500000	0.500000	-0.300000	0.00
-0.500000	0.500000	-0.400000	0.00
-0.500000	0.500000	-0.500000	0.00
-0.400000	0.400000	-0.400000	0.00
-0.300000	0.300000	-0.300000	0.00
-0.200000	0.200000	-0.200000	0.00
-0.100000	0.100000	-0.100000	0.00
0.000000	0.000000	-0.000000	0.00
-0.088278	-0.076628	-0.002458	0.00
-0.176556	-0.153256	-0.004916	0.00
-0.264834	-0.229884	-0.007374	0.00
-0.353112	-0.306512	-0.009832	0.00
-0.441390	-0.383140	-0.012290	0.00
-0.352352	-0.416534	0.074986	0.00
-0.263314	-0.449928	0.162262	0.00
-0.174276	-0.483322	0.249538	0.00
-0.085238	-0.516716	0.336814	0.00
0.003800	-0.550110	0.424090	0.00
0.086800	-0.563708	0.454078	0.00
0.169800	-0.577306	0.484066	0.00
0.252800	-0.590904	0.514054	0.00
0.335800	-0.604502	0.544042	0.00
0.418800	-0.618100	0.574030	0.00
0.428596	-0.627624	0.534152	0.00
0.438392	-0.637148	0.494274	0.00
0.448188	-0.646672	0.454396	0.00
0.457984	-0.656196	0.414518	0.00
0.467780	-0.665720	0.374640	0.00
0.374224	-0.532576	0.199712	0.00
0.280668	-0.399432	0.024784	0.00
0.187112	-0.266288	-0.150144	0.00
0.093556	-0.133144	-0.325072	0.00
