Ag4 Sb8 S14                             
   1.00000000000000     
     4.2343105566539716    5.1880453460198979    0.2705238928670635
    -4.2343105566539716    5.1880453460198979    0.2705238928670635
     0.0000000000000000    2.1784440161889114   15.4674182598747425
   Ag   Sb   S 
     4     8    14
Direct
  0.0912947361418202  0.5719378980725122  0.2112321575233392
  0.4280621019274875  0.9087052638581802  0.2887678424766606
  0.9087052638581802  0.4280621019274875  0.7887678424766609
  0.5719378980725122  0.0912947361418202  0.7112321575233391
  0.6534547323508724  0.6907843352111074  0.0243709607629391
  0.6907843352111075  0.6534547323508724  0.5243709607629389
  0.3465452676491280  0.3092156647888937  0.9756290392370611
  0.3092156647888937  0.3465452676491280  0.4756290392370607
  0.1192886064641505  0.9036557842015019  0.6061923315659727
  0.0963442157984974  0.8807113935358495  0.8938076684340273
  0.8807113935358495  0.0963442157984974  0.3938076684340272
  0.9036557842015019  0.1192886064641505  0.1061923315659727
  0.5370191588734401  0.2218877994168277  0.3433723270416581
  0.5753753648349338 -0.0131934603430849  0.1324198095951045
  0.4629808411265597  0.7781122005831723  0.6566276729583421
  0.2218877994168277  0.5370191588734401  0.8433723270416579
  0.9613840441826100  0.0386159558173898  0.7500000000000000
  0.0386159558173898  0.9613840441826100  0.2500000000000000
 -0.0131934603430849  0.5753753648349338  0.6324198095951040
  0.4246246351650659  0.0131934603430849  0.8675801904048961
  0.0131934603430849  0.4246246351650659  0.3675801904048955
  0.3452311433090569  0.7115327235134717  0.4376821338238656
  0.7115327235134717  0.3452311433090569  0.9376821338238654
  0.6547688566909434  0.2884672764865282  0.5623178661761346
  0.7781122005831723  0.4629808411265597  0.1566276729583422
  0.2884672764865282  0.6547688566909433  0.0623178661761345
 
  0.00000000E+00  0.00000000E+00  0.00000000E+00
  0.00000000E+00  0.00000000E+00  0.00000000E+00
  0.00000000E+00  0.00000000E+00  0.00000000E+00
  0.00000000E+00  0.00000000E+00  0.00000000E+00
  0.00000000E+00  0.00000000E+00  0.00000000E+00
  0.00000000E+00  0.00000000E+00  0.00000000E+00
  0.00000000E+00  0.00000000E+00  0.00000000E+00
  0.00000000E+00  0.00000000E+00  0.00000000E+00
  0.00000000E+00  0.00000000E+00  0.00000000E+00
  0.00000000E+00  0.00000000E+00  0.00000000E+00
  0.00000000E+00  0.00000000E+00  0.00000000E+00
  0.00000000E+00  0.00000000E+00  0.00000000E+00
  0.00000000E+00  0.00000000E+00  0.00000000E+00
  0.00000000E+00  0.00000000E+00  0.00000000E+00
  0.00000000E+00  0.00000000E+00  0.00000000E+00
  0.00000000E+00  0.00000000E+00  0.00000000E+00
  0.00000000E+00  0.00000000E+00  0.00000000E+00
  0.00000000E+00  0.00000000E+00  0.00000000E+00
  0.00000000E+00  0.00000000E+00  0.00000000E+00
  0.00000000E+00  0.00000000E+00  0.00000000E+00
  0.00000000E+00  0.00000000E+00  0.00000000E+00
  0.00000000E+00  0.00000000E+00  0.00000000E+00
  0.00000000E+00  0.00000000E+00  0.00000000E+00
  0.00000000E+00  0.00000000E+00  0.00000000E+00
  0.00000000E+00  0.00000000E+00  0.00000000E+00
  0.00000000E+00  0.00000000E+00  0.00000000E+00
