Li16 Bi8 Se20
1.0
   4.1137554600000001   -0.0000000000000000    0.0000000000000000
   0.0000000000000000   17.1044898900000000    0.0000000000000000
   0.0000000000000000    0.0000000000000000   17.5956727700000002
Li Bi Se
16 8 20
direct
   0.2500000000000000    0.1921860200000000    0.9195806200000000 Li+
   0.2500000000000000    0.6921860200000000    0.5804193800000000 Li+
   0.7500000000000000    0.8078139800000000    0.0804193800000000 Li+
   0.2500000000000000    0.4278061000000000    0.9170864500000000 Li+
   0.7500000000000000    0.5721939000000000    0.0829135500000000 Li+
   0.2500000000000000    0.9278061000000000    0.5829135500000000 Li+
   0.7500000000000000    0.0721939000000000    0.4170864500000000 Li+
   0.2500000000000000    0.1848948700000000    0.2651829400000000 Li+
   0.7500000000000000    0.8151051300000000    0.7348170600000000 Li+
   0.2500000000000000    0.6848948700000000    0.2348170600000000 Li+
   0.7500000000000000    0.3151051300000000    0.7651829400000000 Li+
   0.2500000000000000    0.1833045600000000    0.5693815600000000 Li+
   0.7500000000000000    0.8166954400000001    0.4306184400000000 Li+
   0.2500000000000000    0.6833045599999999    0.9306184400000000 Li+
   0.7500000000000000    0.3166954400000000    0.0693815600000000 Li+
   0.7500000000000000    0.3078139800000000    0.4195806200000000 Li+
   0.7500000000000000    0.5700081299999999    0.7569478300000000 Bi3+
   0.2500000000000000    0.4299918700000000    0.2430521700000000 Bi3+
   0.2500000000000000    0.9299918700000001    0.2569478300000000 Bi3+
   0.7500000000000000    0.0700081300000000    0.7430521700000000 Bi3+
   0.2500000000000000    0.4416818800000000    0.5886045400000000 Bi3+
   0.7500000000000000    0.5583181200000000    0.4113954600000000 Bi3+
   0.2500000000000000    0.9416818800000000    0.9113954600000000 Bi3+
   0.7500000000000000    0.0583181200000000    0.0886045400000000 Bi3+
   0.2500000000000000    0.4334407800000000    0.4182513300000000 Se2-
   0.7500000000000000    0.5665592200000000    0.5817486700000000 Se2-
   0.2500000000000000    0.9334407800000000    0.0817486700000000 Se2-
   0.7500000000000000    0.0665592200000000    0.9182513300000000 Se2-
   0.7500000000000000    0.5480280500000000    0.9068623900000000 Se2-
   0.2500000000000000    0.9519719500000000    0.4068623900000000 Se2-
   0.7500000000000000    0.0480280500000000    0.5931376100000000 Se2-
   0.2500000000000000    0.1807791600000000    0.7336592800000000 Se2-
   0.7500000000000000    0.8192208400000000    0.2663407200000000 Se2-
   0.2500000000000000    0.6807791600000000    0.7663407200000000 Se2-
   0.7500000000000000    0.3192208400000000    0.2336592800000000 Se2-
   0.2500000000000000    0.4547140500000000    0.7417724000000000 Se2-
   0.7500000000000000    0.5452859500000000    0.2582276000000000 Se2-
   0.2500000000000000    0.9547140500000000    0.7582276000000000 Se2-
   0.7500000000000000    0.0452859500000000    0.2417724000000000 Se2-
   0.7500000000000000    0.3352430300000000    0.5978117800000000 Se2-
   0.2500000000000000    0.6647569700000000    0.4021882200000000 Se2-
   0.2500000000000000    0.4519719500000000    0.0931376100000000 Se2-
   0.2500000000000000    0.1647569700000000    0.0978117800000000 Se2-
   0.7500000000000000    0.8352430300000000    0.9021882200000000 Se2-
