Automatically generated mesh
42
Reciprocal lattice
    0.00000000000000    0.25000000000000    0.25000000000000             2
    0.20000000000000    0.25000000000000    0.25000000000000             4
    0.40000000000000    0.25000000000000    0.25000000000000             4
    0.00000000000000   -0.25000000000000    0.25000000000000             2
    0.20000000000000   -0.25000000000000    0.25000000000000             4
    0.40000000000000   -0.25000000000000    0.25000000000000             4
0.000000	-0.500000	0.000000	0.00
0.000000	-0.500000	0.000000	0.00
0.000000	-0.400000	-0.100000	0.00
0.000000	-0.300000	-0.200000	0.00
0.000000	-0.200000	-0.300000	0.00
0.000000	-0.100000	-0.400000	0.00
0.000000	0.000000	-0.500000	0.00
-0.100000	0.000000	-0.400000	0.00
-0.200000	0.000000	-0.300000	0.00
-0.300000	0.000000	-0.200000	0.00
-0.400000	0.000000	-0.100000	0.00
-0.500000	0.000000	0.000000	0.00
-0.400000	0.000000	0.000000	0.00
-0.300000	0.000000	0.000000	0.00
-0.200000	0.000000	0.000000	0.00
-0.100000	0.000000	0.000000	0.00
0.000000	0.000000	0.000000	0.00
0.000000	-0.102190	0.097824	0.00
0.000000	-0.204380	0.195648	0.00
0.000000	-0.306570	0.293472	0.00
0.000000	-0.408760	0.391296	0.00
0.000000	-0.510950	0.489120	0.00
0.100000	-0.408760	0.491296	0.00
0.200000	-0.306570	0.493472	0.00
0.300000	-0.204380	0.495648	0.00
0.400000	-0.102190	0.497824	0.00
0.500000	0.000000	0.500000	0.00
0.500000	-0.097810	0.302176	0.00
0.500000	-0.195620	0.104352	0.00
0.500000	-0.293430	-0.093472	0.00
0.500000	-0.391240	-0.291296	0.00
0.500000	-0.489050	-0.489120	0.00
0.400000	-0.491240	-0.391296	0.00
0.300000	-0.493430	-0.293472	0.00
0.200000	-0.495620	-0.195648	0.00
0.100000	-0.497810	-0.097824	0.00
