K4 Sb8 S14                              
   1.00000000000000     
    -7.6006893764723928    0.0221710212526383   -0.2013878405227051
     2.1337151190478840    9.3710381558262128   -0.0478591676048793
    -0.7500618995435249   -1.9204588347486953  -11.3256136791120170
   K    Sb   S 
     4     8    14
Direct
  0.2803208383441171  0.3352488280220456  0.1131390390399705
  0.4211706686909514  0.7363059149852952  0.5649135606725153
  0.5788293313090487  0.2636940850147049  0.4350864393274845
  0.7196791616558830  0.6647511719779541  0.8868609609600294
  0.0291343985910945  0.9483670222576183  0.3408206582392490
  0.1562896835742294  0.4407906403287768  0.8138276515662374
  0.7299200457211108  0.1332588294201433  0.0475266623943112
  0.5052751071261143  0.1919844782053585  0.7679682477811635
  0.2700799542788891  0.8667411705798567  0.9524733376056888
  0.9708656014089054  0.0516329777423816  0.6591793417607511
  0.8437103164257707  0.5592093596712234  0.1861723484337629
  0.4947248928738857  0.8080155217946412  0.2320317522188363
  0.8059887412320020  0.8666121114708996  0.1482349243978513
  0.6509825487959044  0.3319271892510682  0.9523007233277994
  0.4544056852742306  0.4374138330490406  0.7080269679504917
  0.2347479623277505  0.0151329534870187  0.5284759440610601
  0.0337562649593596  0.6915962318830788  0.3524375060841736
  0.3490174512040954  0.6680728107489246  0.0476992766722008
  0.4419448805048827  0.0682335130995073  0.1600611127424854
  0.9662437350406404  0.3084037681169211  0.6475624939158262
  0.5580551194951171  0.9317664869004927  0.8399388872575148
  0.8787111387688118  0.3182335231150573  0.2253376761127729
  0.1212888612311883  0.6817664768849426  0.7746623238872273
  0.7652520376722496  0.9848670465129811  0.4715240559389326
  0.5455943147257696  0.5625861669509594  0.2919730320495081
  0.1940112587679979  0.1333878885291002  0.8517650756021484
 
  0.00000000E+00  0.00000000E+00  0.00000000E+00
  0.00000000E+00  0.00000000E+00  0.00000000E+00
  0.00000000E+00  0.00000000E+00  0.00000000E+00
  0.00000000E+00  0.00000000E+00  0.00000000E+00
  0.00000000E+00  0.00000000E+00  0.00000000E+00
  0.00000000E+00  0.00000000E+00  0.00000000E+00
  0.00000000E+00  0.00000000E+00  0.00000000E+00
  0.00000000E+00  0.00000000E+00  0.00000000E+00
  0.00000000E+00  0.00000000E+00  0.00000000E+00
  0.00000000E+00  0.00000000E+00  0.00000000E+00
  0.00000000E+00  0.00000000E+00  0.00000000E+00
  0.00000000E+00  0.00000000E+00  0.00000000E+00
  0.00000000E+00  0.00000000E+00  0.00000000E+00
  0.00000000E+00  0.00000000E+00  0.00000000E+00
  0.00000000E+00  0.00000000E+00  0.00000000E+00
  0.00000000E+00  0.00000000E+00  0.00000000E+00
  0.00000000E+00  0.00000000E+00  0.00000000E+00
  0.00000000E+00  0.00000000E+00  0.00000000E+00
  0.00000000E+00  0.00000000E+00  0.00000000E+00
  0.00000000E+00  0.00000000E+00  0.00000000E+00
  0.00000000E+00  0.00000000E+00  0.00000000E+00
  0.00000000E+00  0.00000000E+00  0.00000000E+00
  0.00000000E+00  0.00000000E+00  0.00000000E+00
  0.00000000E+00  0.00000000E+00  0.00000000E+00
  0.00000000E+00  0.00000000E+00  0.00000000E+00
  0.00000000E+00  0.00000000E+00  0.00000000E+00
