K4 Sb8 S14                              
   1.00000000000000     
    -7.6068660665898831    0.0032302601226155   -0.2013405224961661
     2.1586839637245054    9.3781456653726458   -0.0423229042618012
    -0.7553847794253845   -1.9293856589015821  -11.3254148140877700
   K    Sb   S 
     4     8    14
Direct
  0.2797119119826764  0.3347069540768655  0.1134417048816446
  0.4213328826610794  0.7365121109725508  0.5650528438743597
  0.5786671173389204  0.2634878890274493  0.4349471561256402
  0.7202880880173232  0.6652930459231354  0.8865582951183554
  0.0294909232573180  0.9487267553604924  0.3403699877581171
  0.1564792067793991  0.4383472453500636  0.8144334857313753
  0.7317907054876868  0.1324632220914307  0.0463460611383206
  0.5038953285797326  0.1929938951333953  0.7665140121388370
  0.2682092945123132  0.8675367779085693  0.9536539388616788
  0.9705090767426821  0.0512732446395078  0.6596300122418831
  0.8435207932206006  0.5616527546499365  0.1855665142686242
  0.4961046714202672  0.8070061048666051  0.2334859878611629
  0.8073882089260096  0.8668370037015368  0.1484811021017799
  0.6506540889998106  0.3312038746109103  0.9516408443496736
  0.4550831283044121  0.4373414366379813  0.7078755142039296
  0.2343214726758315  0.0138676808560327  0.5292583236233842
  0.0331921588704609  0.6919800004152107  0.3526072342277694
  0.3493459110001894  0.6687961253890896  0.0483591556503260
  0.4438966173545061  0.0677559659138401  0.1597617353287743
  0.9668078411295383  0.3080199995847894  0.6473927657722309
  0.5561033826454936  0.9322440340861594  0.8402382646712258
  0.8773544014320229  0.3202281245093401  0.2243469031935205
  0.1226455985679770  0.6797718754906594  0.7756530968064791
  0.7656785273241687  0.9861323191439674  0.4707416763766154
  0.5449168716955883  0.5626585633620187  0.2921244857960704
  0.1926117910739903  0.1331629962984630  0.8515188978982201
 
  0.00000000E+00  0.00000000E+00  0.00000000E+00
  0.00000000E+00  0.00000000E+00  0.00000000E+00
  0.00000000E+00  0.00000000E+00  0.00000000E+00
  0.00000000E+00  0.00000000E+00  0.00000000E+00
  0.00000000E+00  0.00000000E+00  0.00000000E+00
  0.00000000E+00  0.00000000E+00  0.00000000E+00
  0.00000000E+00  0.00000000E+00  0.00000000E+00
  0.00000000E+00  0.00000000E+00  0.00000000E+00
  0.00000000E+00  0.00000000E+00  0.00000000E+00
  0.00000000E+00  0.00000000E+00  0.00000000E+00
  0.00000000E+00  0.00000000E+00  0.00000000E+00
  0.00000000E+00  0.00000000E+00  0.00000000E+00
  0.00000000E+00  0.00000000E+00  0.00000000E+00
  0.00000000E+00  0.00000000E+00  0.00000000E+00
  0.00000000E+00  0.00000000E+00  0.00000000E+00
  0.00000000E+00  0.00000000E+00  0.00000000E+00
  0.00000000E+00  0.00000000E+00  0.00000000E+00
  0.00000000E+00  0.00000000E+00  0.00000000E+00
  0.00000000E+00  0.00000000E+00  0.00000000E+00
  0.00000000E+00  0.00000000E+00  0.00000000E+00
  0.00000000E+00  0.00000000E+00  0.00000000E+00
  0.00000000E+00  0.00000000E+00  0.00000000E+00
  0.00000000E+00  0.00000000E+00  0.00000000E+00
  0.00000000E+00  0.00000000E+00  0.00000000E+00
  0.00000000E+00  0.00000000E+00  0.00000000E+00
  0.00000000E+00  0.00000000E+00  0.00000000E+00
