SYSTEM = CIS
ISTART = 0
ICHARG = 2
PREC = Medium
ENCUT = 300
EDIFF = 1E-4
EDIFFG = -0.05
LWAVE = .FALSE.
LORBIT = 10
LREAL = Auto
LCHARG = .TRUE.
LASPH = .TRUE.
LMAXMIX = 4
NSW = 0

IBRION = -1
ISIF = 3
ISMEAR = 0
SIGMA = 0.05
POTIM = 0.1

LHFCALC = .TRUE.
GGA = PE
HFSCREEN = 0.2