Automatically generated mesh
67
Reciprocal lattice
   -0.00000000000000    0.25000000000000    0.25000000000000             2
    0.33333333333333    0.25000000000000    0.25000000000000             2
   -0.33333333333333    0.25000000000000    0.25000000000000             2
    0.00000000000000   -0.25000000000000    0.25000000000000             2
    0.33333333333333   -0.25000000000000    0.25000000000000             2
   -0.33333333333333   -0.25000000000000    0.25000000000000             2
0.000000	-0.000000	-0.500000	0.00
0.000000	-0.000000	-0.500000	0.00
0.100000	-0.100000	-0.400000	0.00
0.200000	-0.200000	-0.300000	0.00
0.300000	-0.300000	-0.200000	0.00
0.400000	-0.400000	-0.100000	0.00
0.500000	-0.500000	0.000000	0.00
0.500000	-0.500000	0.100000	0.00
0.500000	-0.500000	0.200000	0.00
0.500000	-0.500000	0.300000	0.00
0.500000	-0.500000	0.400000	0.00
0.500000	-0.500000	0.500000	0.00
0.500000	-0.400000	0.400000	0.00
0.500000	-0.300000	0.300000	0.00
0.500000	-0.200000	0.200000	0.00
0.500000	-0.100000	0.100000	0.00
0.500000	0.000000	0.000000	0.00
0.400000	0.100000	0.000000	0.00
0.300000	0.200000	0.000000	0.00
0.200000	0.300000	0.000000	0.00
0.100000	0.400000	0.000000	0.00
0.000000	0.500000	0.000000	0.00
0.000000	0.400000	0.000000	0.00
0.000000	0.300000	0.000000	0.00
0.000000	0.200000	0.000000	0.00
0.000000	0.100000	0.000000	0.00
0.000000	0.000000	-0.000000	0.00
-0.094238	0.090706	-0.128184	0.00
-0.188476	0.181412	-0.256368	0.00
-0.282714	0.272118	-0.384552	0.00
-0.376952	0.362824	-0.512736	0.00
-0.471190	0.453530	-0.640920	0.00
-0.471676	0.363118	-0.626616	0.00
-0.472162	0.272706	-0.612312	0.00
-0.472648	0.182294	-0.598008	0.00
-0.473134	0.091882	-0.583704	0.00
-0.473620	0.001470	-0.569400	0.00
-0.467724	-0.077764	-0.457236	0.00
-0.461828	-0.156998	-0.345072	0.00
-0.455932	-0.236232	-0.232908	0.00
-0.450036	-0.315466	-0.120744	0.00
-0.444140	-0.394700	-0.008580	0.00
-0.355798	-0.406170	-0.092560	0.00
-0.267456	-0.417640	-0.176540	0.00
-0.179114	-0.429110	-0.260520	0.00
-0.090772	-0.440580	-0.344500	0.00
-0.002430	-0.452050	-0.428480	0.00
0.082094	-0.492584	-0.241490	0.00
0.166618	-0.533118	-0.054500	0.00
0.251142	-0.573652	0.132490	0.00
0.335666	-0.614186	0.319480	0.00
0.420190	-0.654720	0.506470	0.00
0.419216	-0.635542	0.335076	0.00
0.418242	-0.616364	0.163682	0.00
0.417268	-0.597186	-0.007712	0.00
0.416294	-0.578008	-0.179106	0.00
0.415320	-0.558830	-0.350500	0.00
0.332256	-0.447064	-0.380400	0.00
0.249192	-0.335298	-0.410300	0.00
0.166128	-0.223532	-0.440200	0.00
0.083064	-0.111766	-0.470100	0.00
