Li9 Bi1 S6                              
   1.00000000000000     
     6.7738672667489235    0.1845699909583781   -3.4760674600442525
    -1.9409798951142456    5.7772966077531551   -3.4907404877544503
    -0.0594451639011007   -0.1418126262930132    7.0070086255700756
   Li   Bi   S 
     9     1     6
Direct
  0.1405234802699194  0.4209080306548004  0.4414428661486039
  0.1518794533645022  0.0232561896329512  0.7303090710226713
  0.0000000000000000  0.0000000000000000  0.0000000000000000
  0.1410977478704726  0.7035044492484400  0.1194424634728116
  0.5369060442469145  0.8240880257369062  0.6680154245926313
  0.4630939557530860  0.1759119742630945  0.3319845754073685
  0.8589022521295274  0.2964955507515603  0.8805585365271855
  0.8481205466354979 -0.0232561896329511  0.2696909289773290
 -0.1405234802699194  0.5790919693451996  0.5585571338513960
  0.5000000000000000  0.5000000000000000  0.0000000000000000
  0.2356872385431569  0.0998987810071479  0.4793018700622107
  0.2477153964041946  0.3962166844700356  0.1546156998132212
  0.2460248409970278  0.7628752513710721 -0.1366391900100054
  0.7643127614568423  0.9001012189928520  0.5206981299377895
  0.7539751590029723  0.2371247486289277  0.1366391900100054
  0.7522846035958057  0.6037833155299644  0.8453843001867788
 
  0.00000000E+00  0.00000000E+00  0.00000000E+00
  0.00000000E+00  0.00000000E+00  0.00000000E+00
  0.00000000E+00  0.00000000E+00  0.00000000E+00
  0.00000000E+00  0.00000000E+00  0.00000000E+00
  0.00000000E+00  0.00000000E+00  0.00000000E+00
  0.00000000E+00  0.00000000E+00  0.00000000E+00
  0.00000000E+00  0.00000000E+00  0.00000000E+00
  0.00000000E+00  0.00000000E+00  0.00000000E+00
  0.00000000E+00  0.00000000E+00  0.00000000E+00
  0.00000000E+00  0.00000000E+00  0.00000000E+00
  0.00000000E+00  0.00000000E+00  0.00000000E+00
  0.00000000E+00  0.00000000E+00  0.00000000E+00
  0.00000000E+00  0.00000000E+00  0.00000000E+00
  0.00000000E+00  0.00000000E+00  0.00000000E+00
  0.00000000E+00  0.00000000E+00  0.00000000E+00
  0.00000000E+00  0.00000000E+00  0.00000000E+00
