Automatically generated mesh
42
Reciprocal lattice
    0.00000000000000    0.25000000000000    0.25000000000000             2
    0.20000000000000    0.25000000000000    0.25000000000000             4
    0.40000000000000    0.25000000000000    0.25000000000000             4
    0.00000000000000   -0.25000000000000    0.25000000000000             2
    0.20000000000000   -0.25000000000000    0.25000000000000             4
    0.40000000000000   -0.25000000000000    0.25000000000000             4
0.000000	-0.500000	-0.000000	0.00
0.000000	-0.500000	-0.000000	0.00
0.000000	-0.400000	-0.100000	0.00
0.000000	-0.300000	-0.200000	0.00
0.000000	-0.200000	-0.300000	0.00
0.000000	-0.100000	-0.400000	0.00
0.000000	0.000000	-0.500000	0.00
-0.100000	0.000000	-0.400000	0.00
-0.200000	0.000000	-0.300000	0.00
-0.300000	0.000000	-0.200000	0.00
-0.400000	0.000000	-0.100000	0.00
-0.500000	0.000000	0.000000	0.00
-0.400000	0.000000	0.000000	0.00
-0.300000	0.000000	0.000000	0.00
-0.200000	0.000000	0.000000	0.00
-0.100000	0.000000	0.000000	0.00
0.000000	0.000000	0.000000	0.00
0.000000	-0.108062	0.093304	0.00
0.000000	-0.216124	0.186608	0.00
0.000000	-0.324186	0.279912	0.00
0.000000	-0.432248	0.373216	0.00
0.000000	-0.540310	0.466520	0.00
0.100000	-0.432248	0.473216	0.00
0.200000	-0.324186	0.479912	0.00
0.300000	-0.216124	0.486608	0.00
0.400000	-0.108062	0.493304	0.00
0.500000	-0.000000	0.500000	0.00
0.500000	-0.091938	0.306696	0.00
0.500000	-0.183876	0.113392	0.00
0.500000	-0.275814	-0.079912	0.00
0.500000	-0.367752	-0.273216	0.00
0.500000	-0.459690	-0.466520	0.00
0.400000	-0.467752	-0.373216	0.00
0.300000	-0.475814	-0.279912	0.00
0.200000	-0.483876	-0.186608	0.00
0.100000	-0.491938	-0.093304	0.00
