Automatically generated mesh
62
Reciprocal lattice
    0.00000000000000    0.25000000000000    0.25000000000000             2
    0.33333333333333    0.25000000000000    0.25000000000000             2
   -0.33333333333333    0.25000000000000    0.25000000000000             2
    0.00000000000000   -0.25000000000000    0.25000000000000             2
    0.33333333333333   -0.25000000000000    0.25000000000000             2
   -0.33333333333333   -0.25000000000000    0.25000000000000             2
0.000000	-0.000000	-0.500000	0.00
0.000000	-0.000000	-0.500000	0.00
0.100000	-0.100000	-0.400000	0.00
0.200000	-0.200000	-0.300000	0.00
0.300000	-0.300000	-0.200000	0.00
0.400000	-0.400000	-0.100000	0.00
0.500000	-0.500000	0.000000	0.00
0.500000	-0.500000	0.100000	0.00
0.500000	-0.500000	0.200000	0.00
0.500000	-0.500000	0.300000	0.00
0.500000	-0.500000	0.400000	0.00
0.500000	-0.500000	0.500000	0.00
0.500000	-0.400000	0.400000	0.00
0.500000	-0.300000	0.300000	0.00
0.500000	-0.200000	0.200000	0.00
0.500000	-0.100000	0.100000	0.00
0.500000	0.000000	0.000000	0.00
0.400000	0.100000	0.000000	0.00
0.300000	0.200000	0.000000	0.00
0.200000	0.300000	0.000000	0.00
0.100000	0.400000	0.000000	0.00
0.000000	0.500000	0.000000	0.00
0.000000	0.400000	0.000000	0.00
0.000000	0.300000	0.000000	0.00
0.000000	0.200000	0.000000	0.00
0.000000	0.100000	0.000000	0.00
0.000000	0.000000	-0.000000	0.00
-0.095516	0.089238	-0.125156	0.00
-0.191032	0.178476	-0.250312	0.00
-0.286548	0.267714	-0.375468	0.00
-0.382064	0.356952	-0.500624	0.00
-0.477580	0.446190	-0.625780	0.00
-0.485342	0.356752	-0.592434	0.00
-0.493104	0.267314	-0.559088	0.00
-0.500866	0.177876	-0.525742	0.00
-0.508628	0.088438	-0.492396	0.00
-0.516390	-0.001000	-0.459050	0.00
-0.500480	-0.077728	-0.370598	0.00
-0.484570	-0.154456	-0.282146	0.00
-0.468660	-0.231184	-0.193694	0.00
-0.452750	-0.307912	-0.105242	0.00
-0.436840	-0.384640	-0.016790	0.00
-0.350678	-0.396750	-0.096466	0.00
-0.264516	-0.408860	-0.176142	0.00
-0.178354	-0.420970	-0.255818	0.00
-0.092192	-0.433080	-0.335494	0.00
-0.006030	-0.445190	-0.415170	0.00
0.078060	-0.468462	-0.403622	0.00
0.162150	-0.491734	-0.392074	0.00
0.246240	-0.515006	-0.380526	0.00
0.330330	-0.538278	-0.368978	0.00
0.414420	-0.561550	-0.357430	0.00
0.331536	-0.449240	-0.385944	0.00
0.248652	-0.336930	-0.414458	0.00
0.165768	-0.224620	-0.442972	0.00
0.082884	-0.112310	-0.471486	0.00
