Automatically generated mesh
39
Reciprocal lattice
    0.00000000000000    0.25000000000000    0.25000000000000             4
    0.20000000000000    0.25000000000000    0.25000000000000             8
    0.40000000000000    0.25000000000000    0.25000000000000             8
0.000000	0.000000	0.500000	0.00
0.000000	0.000000	0.500000	0.00
0.000000	0.100000	0.400000	0.00
0.000000	0.200000	0.300000	0.00
0.000000	0.300000	0.200000	0.00
0.000000	0.400000	0.100000	0.00
0.000000	0.500000	0.000000	0.00
0.100000	0.400000	0.000000	0.00
0.200000	0.300000	0.000000	0.00
0.300000	0.200000	0.000000	0.00
0.400000	0.100000	0.000000	0.00
0.500000	0.000000	0.000000	0.00
0.400000	0.000000	0.000000	0.00
0.300000	0.000000	0.000000	0.00
0.200000	0.000000	0.000000	0.00
0.100000	0.000000	0.000000	0.00
0.000000	0.000000	0.000000	0.00
0.000000	-0.100000	0.100000	0.00
0.000000	-0.200000	0.200000	0.00
0.000000	-0.300000	0.300000	0.00
0.000000	-0.400000	0.400000	0.00
0.000000	-0.500000	0.500000	0.00
-0.100000	-0.500000	0.400000	0.00
-0.200000	-0.500000	0.300000	0.00
-0.300000	-0.500000	0.200000	0.00
-0.400000	-0.500000	0.100000	0.00
-0.500000	-0.500000	0.000000	0.00
-0.500000	-0.300000	0.100000	0.00
-0.500000	-0.100000	0.200000	0.00
-0.500000	0.100000	0.300000	0.00
-0.500000	0.300000	0.400000	0.00
-0.500000	0.500000	0.500000	0.00
-0.400000	0.400000	0.500000	0.00
-0.300000	0.300000	0.500000	0.00
-0.200000	0.200000	0.500000	0.00
-0.100000	0.100000	0.500000	0.00
