Li16 Bi8 S20                            
   1.00000000000000     
     3.9412556843778628   -0.0000000000000000    0.0000000000000000
    -0.0000000000000000   15.8216042158298311    0.0000000000000000
     0.0000000000000000    0.0000000000000000   16.0050573801894878
   Li   Bi   S 
    16     8    20
Direct
  0.2500000000000000  0.1588268711156276  0.9106811706141776
  0.2500000000000000  0.6588268711156271  0.5893188293858224
  0.7500000000000000  0.8411731288843729  0.0893188293858225
  0.2500000000000000  0.4876089316305894  0.9297243930965061
  0.7500000000000000  0.5123910683694104  0.0702756069034940
  0.2500000000000000  0.9876089316305896  0.5702756069034939
  0.7500000000000000  0.0123910683694107  0.4297243930965062
  0.2500000000000000  0.2016959376225137  0.2331380391658904
  0.7500000000000000  0.7983040623774862  0.7668619608341092
  0.2500000000000000  0.7016959376225138  0.2668619608341097
  0.7500000000000000  0.2983040623774863  0.7331380391658908
  0.2500000000000000  0.1849591310090141  0.5979182943150045
  0.7500000000000000  0.8150408689909860  0.4020817056849959
  0.2500000000000000  0.6849591310090140  0.9020817056849955
  0.7500000000000000  0.3150408689909860  0.0979182943150043
  0.7500000000000000  0.3411731288843722  0.4106811706141775
  0.7500000000000000  0.5641570632341414  0.7666063574627537
  0.2500000000000000  0.4358429367658587  0.2333936425372459
  0.2500000000000000  0.9358429367658586  0.2666063574627541
  0.7500000000000000  0.0641570632341413  0.7333936425372463
  0.2500000000000000  0.4253713564107731  0.5900651366410726
  0.7500000000000000  0.5746286435892271  0.4099348633589279
  0.2500000000000000  0.9253713564107729  0.9099348633589274
  0.7500000000000000  0.0746286435892270  0.0900651366410723
  0.2500000000000000  0.4376655725480355  0.4159583992650100
  0.7500000000000000  0.5623344274519644  0.5840416007349899
  0.2500000000000000  0.9376655725480356  0.0840416007349898
  0.7500000000000000  0.0623344274519645  0.9159583992650101
  0.7500000000000000  0.5823524932183198  0.9319279366634343
  0.2500000000000000  0.9176475067816802  0.4319279366634338
  0.7500000000000000  0.0823524932183197  0.5680720633365657
  0.2500000000000000  0.1924959393526395  0.7567468098980313
  0.7500000000000000  0.8075040606473605  0.2432531901019686
  0.2500000000000000  0.6924959393526395  0.7432531901019687
  0.7500000000000000  0.3075040606473605  0.2567468098980313
  0.2500000000000000  0.4308262143882434  0.7697813366785602
  0.7500000000000000  0.5691737856117570  0.2302186633214397
  0.2500000000000000  0.9308262143882430  0.7302186633214398
  0.7500000000000000  0.0691737856117567  0.2697813366785605
  0.7500000000000000  0.3054745135841235  0.5731818045020610
  0.2500000000000000  0.6945254864158766  0.4268181954979393
  0.2500000000000000  0.4176475067816802  0.0680720633365660
  0.2500000000000000  0.1945254864158768  0.0731818045020608
  0.7500000000000000  0.8054745135841234  0.9268181954979390
 
  0.00000000E+00  0.00000000E+00  0.00000000E+00
  0.00000000E+00  0.00000000E+00  0.00000000E+00
  0.00000000E+00  0.00000000E+00  0.00000000E+00
  0.00000000E+00  0.00000000E+00  0.00000000E+00
  0.00000000E+00  0.00000000E+00  0.00000000E+00
  0.00000000E+00  0.00000000E+00  0.00000000E+00
  0.00000000E+00  0.00000000E+00  0.00000000E+00
  0.00000000E+00  0.00000000E+00  0.00000000E+00
  0.00000000E+00  0.00000000E+00  0.00000000E+00
  0.00000000E+00  0.00000000E+00  0.00000000E+00
  0.00000000E+00  0.00000000E+00  0.00000000E+00
  0.00000000E+00  0.00000000E+00  0.00000000E+00
  0.00000000E+00  0.00000000E+00  0.00000000E+00
  0.00000000E+00  0.00000000E+00  0.00000000E+00
  0.00000000E+00  0.00000000E+00  0.00000000E+00
  0.00000000E+00  0.00000000E+00  0.00000000E+00
  0.00000000E+00  0.00000000E+00  0.00000000E+00
  0.00000000E+00  0.00000000E+00  0.00000000E+00
  0.00000000E+00  0.00000000E+00  0.00000000E+00
  0.00000000E+00  0.00000000E+00  0.00000000E+00
  0.00000000E+00  0.00000000E+00  0.00000000E+00
  0.00000000E+00  0.00000000E+00  0.00000000E+00
  0.00000000E+00  0.00000000E+00  0.00000000E+00
  0.00000000E+00  0.00000000E+00  0.00000000E+00
  0.00000000E+00  0.00000000E+00  0.00000000E+00
  0.00000000E+00  0.00000000E+00  0.00000000E+00
  0.00000000E+00  0.00000000E+00  0.00000000E+00
  0.00000000E+00  0.00000000E+00  0.00000000E+00
  0.00000000E+00  0.00000000E+00  0.00000000E+00
  0.00000000E+00  0.00000000E+00  0.00000000E+00
  0.00000000E+00  0.00000000E+00  0.00000000E+00
  0.00000000E+00  0.00000000E+00  0.00000000E+00
  0.00000000E+00  0.00000000E+00  0.00000000E+00
  0.00000000E+00  0.00000000E+00  0.00000000E+00
  0.00000000E+00  0.00000000E+00  0.00000000E+00
  0.00000000E+00  0.00000000E+00  0.00000000E+00
  0.00000000E+00  0.00000000E+00  0.00000000E+00
  0.00000000E+00  0.00000000E+00  0.00000000E+00
  0.00000000E+00  0.00000000E+00  0.00000000E+00
  0.00000000E+00  0.00000000E+00  0.00000000E+00
  0.00000000E+00  0.00000000E+00  0.00000000E+00
  0.00000000E+00  0.00000000E+00  0.00000000E+00
  0.00000000E+00  0.00000000E+00  0.00000000E+00
  0.00000000E+00  0.00000000E+00  0.00000000E+00
