Na4 Sb8 S14                             
   1.00000000000000     
    -7.1671996093239549    0.0809919785048915   -0.3247658790240665
     1.9442192335932587    9.0332059930442270   -0.1382336020781605
    -0.8716641431990231   -1.6930886726986827  -10.7763419794078299
   Na   Sb   S 
     4     8    14
Direct
  0.3118790276741872  0.3403160991266735  0.1200158289656963
  0.4212958891658968  0.7665135112488233  0.5917741481399379
  0.5787041108341102  0.2334864887511765  0.4082258518600621
  0.6881209723258129  0.6596839008733265  0.8799841710343035
  0.0269469194261832  0.9483512522285071  0.3351093452590539
  0.1378794219467341  0.4481365349621826  0.8146916558840552
  0.7501499201900603  0.1312910050247705  0.0524488923806012
  0.5229164278731789  0.2111820422116038  0.7602789992475546
  0.2498500798099396  0.8687089949752297  0.9475511076193986
  0.9730530805738099  0.0516487477714928  0.6648906547409460
  0.8621205780532658  0.5518634650378175  0.1853083441159447
  0.4770835721268210  0.7888179577883964  0.2397210007524455
  0.8096523564698453  0.8458197458625903  0.1333002889935967
  0.6678047654655447  0.3502030934573209  0.9535740480843587
  0.4625757053294292  0.4596375514071188  0.6982304699913778
  0.2588913589901567  0.0194836902273428  0.5227910562097077
  0.0423497432479612  0.6869478982614546  0.3633331872675866
  0.3321952345344553  0.6497969065426791  0.0464259519156411
  0.4382141351632928  0.0816819843187199  0.1714744280195870
  0.9576502567520387  0.3130521017385454  0.6366668127324132
  0.5617858648367070  0.9183180156812801  0.8285255719804132
  0.9159374486626094  0.3009107391948617  0.2334402420273947
  0.0840625513373835  0.6990892608051382  0.7665597579726053
  0.7411086410098433  0.9805163097726572  0.4772089437902924
  0.5374242946705636  0.5403624485928811  0.3017695300086223
  0.1903476435301548  0.1541802541374096  0.8666997110064035
 
  0.00000000E+00  0.00000000E+00  0.00000000E+00
  0.00000000E+00  0.00000000E+00  0.00000000E+00
  0.00000000E+00  0.00000000E+00  0.00000000E+00
  0.00000000E+00  0.00000000E+00  0.00000000E+00
  0.00000000E+00  0.00000000E+00  0.00000000E+00
  0.00000000E+00  0.00000000E+00  0.00000000E+00
  0.00000000E+00  0.00000000E+00  0.00000000E+00
  0.00000000E+00  0.00000000E+00  0.00000000E+00
  0.00000000E+00  0.00000000E+00  0.00000000E+00
  0.00000000E+00  0.00000000E+00  0.00000000E+00
  0.00000000E+00  0.00000000E+00  0.00000000E+00
  0.00000000E+00  0.00000000E+00  0.00000000E+00
  0.00000000E+00  0.00000000E+00  0.00000000E+00
  0.00000000E+00  0.00000000E+00  0.00000000E+00
  0.00000000E+00  0.00000000E+00  0.00000000E+00
  0.00000000E+00  0.00000000E+00  0.00000000E+00
  0.00000000E+00  0.00000000E+00  0.00000000E+00
  0.00000000E+00  0.00000000E+00  0.00000000E+00
  0.00000000E+00  0.00000000E+00  0.00000000E+00
  0.00000000E+00  0.00000000E+00  0.00000000E+00
  0.00000000E+00  0.00000000E+00  0.00000000E+00
  0.00000000E+00  0.00000000E+00  0.00000000E+00
  0.00000000E+00  0.00000000E+00  0.00000000E+00
  0.00000000E+00  0.00000000E+00  0.00000000E+00
  0.00000000E+00  0.00000000E+00  0.00000000E+00
  0.00000000E+00  0.00000000E+00  0.00000000E+00
