pymatgen with grid density = 807 / number of atoms
0
Monkhorst
3 2 2
