Na4 Sb8 S14                             
   1.00000000000000     
    -7.1668987647190407    0.0840152865457524   -0.3248598916168510
     1.9403689964611879    9.0350527890929619   -0.1386966320635104
    -0.8711952806471491   -1.6925615650081653  -10.7731189362992144
   Na   Sb   S 
     4     8    14
Direct
  0.3117696210588247  0.3403186263765326  0.1201207404821924
  0.4216016551275567  0.7665666102946054  0.5915441447089413
  0.5783983448724441  0.2334333897053946  0.4084558552910585
  0.6882303789411753  0.6596813736234672  0.8798792595178078
  0.0267103561592455  0.9484447507211868  0.3351005585105026
  0.1377853413009600  0.4480570811214629  0.8147655138969744
  0.7503951258890054  0.1313151900852910  0.0522770963269060
  0.5226357265231526  0.2109414593719614  0.7604490948274144
  0.2496048741109945  0.8686848099147089  0.9477229036730939
  0.9732896438407542  0.0515552492788127  0.6648994414894978
  0.8622146586990403  0.5519429188785372  0.1852344861030252
  0.4773642734768476  0.7890585406280380  0.2395509051725855
  0.8097979067738749  0.8458931549831721  0.1332352637338009
  0.6679059028618918  0.3500944905544738  0.9536504846033964
  0.4625924934081488  0.4593810462011333  0.6984512069806200
  0.2590424259036471  0.0191219751573016  0.5227110138642933
  0.0422002241496558  0.6870093578417393  0.3633958945774630
  0.3320940971381077  0.6499055094455257  0.0463495153966035
  0.4384475244961710  0.0819887441511770  0.1713784243740491
  0.9577997758503443  0.3129906421582603  0.6366041054225365
  0.5615524755038293  0.9180112558488231  0.8286215756259505
  0.9157222332766856  0.3010026924734933  0.2335885586120074
  0.0842777667233143  0.6989973075265067  0.7664114413879921
  0.7409575740963531  0.9808780248426985  0.4772889861357070
  0.5374075065918505  0.5406189537988663  0.3015487930193801
  0.1902020932261250  0.1541068450168280  0.8667647362661999
 
  0.00000000E+00  0.00000000E+00  0.00000000E+00
  0.00000000E+00  0.00000000E+00  0.00000000E+00
  0.00000000E+00  0.00000000E+00  0.00000000E+00
  0.00000000E+00  0.00000000E+00  0.00000000E+00
  0.00000000E+00  0.00000000E+00  0.00000000E+00
  0.00000000E+00  0.00000000E+00  0.00000000E+00
  0.00000000E+00  0.00000000E+00  0.00000000E+00
  0.00000000E+00  0.00000000E+00  0.00000000E+00
  0.00000000E+00  0.00000000E+00  0.00000000E+00
  0.00000000E+00  0.00000000E+00  0.00000000E+00
  0.00000000E+00  0.00000000E+00  0.00000000E+00
  0.00000000E+00  0.00000000E+00  0.00000000E+00
  0.00000000E+00  0.00000000E+00  0.00000000E+00
  0.00000000E+00  0.00000000E+00  0.00000000E+00
  0.00000000E+00  0.00000000E+00  0.00000000E+00
  0.00000000E+00  0.00000000E+00  0.00000000E+00
  0.00000000E+00  0.00000000E+00  0.00000000E+00
  0.00000000E+00  0.00000000E+00  0.00000000E+00
  0.00000000E+00  0.00000000E+00  0.00000000E+00
  0.00000000E+00  0.00000000E+00  0.00000000E+00
  0.00000000E+00  0.00000000E+00  0.00000000E+00
  0.00000000E+00  0.00000000E+00  0.00000000E+00
  0.00000000E+00  0.00000000E+00  0.00000000E+00
  0.00000000E+00  0.00000000E+00  0.00000000E+00
  0.00000000E+00  0.00000000E+00  0.00000000E+00
  0.00000000E+00  0.00000000E+00  0.00000000E+00
