Li9 Al1 S6                              
   1.00000000000000     
     7.6598116092044730    0.6357450805886526   -0.1588648196768215
     4.3754938559278029    7.8525555294603073   -1.1570252568032104
     3.7050512871790984    1.4911709642825972    5.5914544166299693
   Al   Li   S 
     1     9     6
Direct
  0.4681868830181019  0.4196922517705960  0.5280124825184118
  0.5892879079749140 -0.0064796581667464  0.4097260132325382
 -0.0421761891364361  0.4984243469343536  0.0507411855873911
 -0.0218963046351764 -0.1213510234328563  0.6395120087419851
  0.0102927881745569  0.4508981218644315  0.4609009647891135
  0.9741689543732003  0.7796308599457752  0.0994342094555459
  0.2203857430781050  0.8588629029445479  0.1806067123154719
  0.2254045449333071  0.1553592742023687  0.9687125904485369
  0.2979543078956650  0.8674400008397206  0.7243592333423043
  0.6183723493624345  0.4027453730681731 -0.0298744028025091
  0.4045914682528171  0.2566391522171438  0.2143651584413399
  0.5651346651396455  0.5867662222256022  0.1706656258963529
  0.6071733728419293  0.1080164453683457  0.6580357381079465
  0.5922718184416882  0.5534357659069017  0.6427455782313732
  0.0447200572334102  0.5886705844678923  0.6599851241995931
  0.0026276330518167  0.2131513798437524 -0.2356292225053856
 
  0.00000000E+00  0.00000000E+00  0.00000000E+00
  0.00000000E+00  0.00000000E+00  0.00000000E+00
  0.00000000E+00  0.00000000E+00  0.00000000E+00
  0.00000000E+00  0.00000000E+00  0.00000000E+00
  0.00000000E+00  0.00000000E+00  0.00000000E+00
  0.00000000E+00  0.00000000E+00  0.00000000E+00
  0.00000000E+00  0.00000000E+00  0.00000000E+00
  0.00000000E+00  0.00000000E+00  0.00000000E+00
  0.00000000E+00  0.00000000E+00  0.00000000E+00
  0.00000000E+00  0.00000000E+00  0.00000000E+00
  0.00000000E+00  0.00000000E+00  0.00000000E+00
  0.00000000E+00  0.00000000E+00  0.00000000E+00
  0.00000000E+00  0.00000000E+00  0.00000000E+00
  0.00000000E+00  0.00000000E+00  0.00000000E+00
  0.00000000E+00  0.00000000E+00  0.00000000E+00
  0.00000000E+00  0.00000000E+00  0.00000000E+00
