Na4 Sb8 Se14                            
   1.00000000000000     
    -7.3471906903534814    0.0050503429708132   -0.3010959555015816
     2.0861875923656239    9.3963287601368712   -0.1064882202244819
    -0.8399989974277916   -1.8250970516391836  -11.2788476392307526
   Na   Sb   Se
     4     8    14
Direct
  0.3113442786309374  0.3436157013742149  0.1192474332573383
  0.4278839868859821  0.7572908130046259  0.5892843573779440
  0.5721160131140176  0.2427091869953743  0.4107156426220566
  0.6886557213690624  0.6563842986257847  0.8807525667426619
  0.0213641981966165  0.9626909075569331  0.3324150010802268
  0.1413571987500601  0.4473890837589762  0.8085469690470227
  0.7490571312468041  0.1301759617875505  0.0501227906452629
  0.5253174234027537  0.2066120474477067  0.7549075726805969
  0.2509428687531959  0.8698240382124495  0.9498772093547371
  0.9786358018033836  0.0373090924430668  0.6675849989197732
  0.8586428012499399  0.5526109162410235  0.1914530309529774
  0.4746825765972463  0.7933879525522929  0.2450924273194035
  0.8211791818665887  0.8489999203882026  0.1292112835761280
  0.6745584573838398  0.3547443023750536  0.9537655676350869
  0.4739589617982942  0.4579400482098866  0.6883351208460254
  0.2777537862686540  0.0197257337743009  0.5284512603371275
  0.0553379269331955  0.7026531590146592  0.3665568261822492
  0.3254415426161609  0.6452556976249466  0.0462344323649132
  0.4215087223214885  0.0779573651791853  0.1694619946223125
  0.9446620730668044  0.2973468409853407  0.6334431738177508
  0.5784912776785113  0.9220426348208144  0.8305380053776880
  0.9195232694844259  0.3026768749246397  0.2408081193339766
  0.0804767305155744  0.6973231250753673  0.7591918806660235
  0.7222462137313462  0.9802742662256991  0.4715487396628723
  0.5260410382017127  0.5420599517901131  0.3116648791539747
  0.1788208181334114  0.1510000796117973  0.8707887164238715
 
  0.00000000E+00  0.00000000E+00  0.00000000E+00
  0.00000000E+00  0.00000000E+00  0.00000000E+00
  0.00000000E+00  0.00000000E+00  0.00000000E+00
  0.00000000E+00  0.00000000E+00  0.00000000E+00
  0.00000000E+00  0.00000000E+00  0.00000000E+00
  0.00000000E+00  0.00000000E+00  0.00000000E+00
  0.00000000E+00  0.00000000E+00  0.00000000E+00
  0.00000000E+00  0.00000000E+00  0.00000000E+00
  0.00000000E+00  0.00000000E+00  0.00000000E+00
  0.00000000E+00  0.00000000E+00  0.00000000E+00
  0.00000000E+00  0.00000000E+00  0.00000000E+00
  0.00000000E+00  0.00000000E+00  0.00000000E+00
  0.00000000E+00  0.00000000E+00  0.00000000E+00
  0.00000000E+00  0.00000000E+00  0.00000000E+00
  0.00000000E+00  0.00000000E+00  0.00000000E+00
  0.00000000E+00  0.00000000E+00  0.00000000E+00
  0.00000000E+00  0.00000000E+00  0.00000000E+00
  0.00000000E+00  0.00000000E+00  0.00000000E+00
  0.00000000E+00  0.00000000E+00  0.00000000E+00
  0.00000000E+00  0.00000000E+00  0.00000000E+00
  0.00000000E+00  0.00000000E+00  0.00000000E+00
  0.00000000E+00  0.00000000E+00  0.00000000E+00
  0.00000000E+00  0.00000000E+00  0.00000000E+00
  0.00000000E+00  0.00000000E+00  0.00000000E+00
  0.00000000E+00  0.00000000E+00  0.00000000E+00
  0.00000000E+00  0.00000000E+00  0.00000000E+00
