Na4 Sb8 Se14                            
   1.00000000000000     
    -7.3524532485877767    0.0108664617372786   -0.3205222567908422
     2.0795107493840459    9.3922918933378394   -0.0951226585563631
    -0.8682929453945590   -1.8311644430403917  -11.2933336875595742
   Na   Sb   Se
     4     8    14
Direct
  0.3111554184569181  0.3444132129561652  0.1207109135445880
  0.4298439069956735  0.7570928164014125  0.5877684785463345
  0.5701560930043272  0.2429071835985876  0.4122315214536651
  0.6888445815430823  0.6555867870438346  0.8792890864554121
  0.0231542019543580  0.9599040678599167  0.3314717055586976
  0.1419924478488427  0.4466564256060221  0.8091369846440664
  0.7497610690254006  0.1305820515156623  0.0499794937611491
  0.5266178108773744  0.2061177849129002  0.7567744870694044
  0.2502389309745989  0.8694179484843381  0.9500205062388508
  0.9768457980456421  0.0400959321400826  0.6685282944413019
  0.8580075521511575  0.5533435743939783  0.1908630153559334
  0.4733821891226256  0.7938822150870999  0.2432255129305955
  0.8220622738176714  0.8494809426384691  0.1291166204312980
  0.6746650109053085  0.3549285373941962  0.9539768911074082
  0.4742654807935517  0.4574685585352909  0.6885147094162578
  0.2761527573122738  0.0178407761623129  0.5282527619412998
  0.0562098827586347  0.7011079387944418  0.3658944616195628
  0.3253349890946913  0.6450714626058039  0.0460231088925920
  0.4230170622244594  0.0792435224150874  0.1700629790398108
  0.9437901172413652  0.2988920612055579  0.6341055383804373
  0.5769829377755408  0.9207564775849125  0.8299370209601891
  0.9162982679611504  0.3025886242381015  0.2397244693206281
  0.0837017320388501  0.6974113757618987  0.7602755306793727
  0.7238472426877268  0.9821592238376873  0.4717472380587001
  0.5257345192064484  0.5425314414647092  0.3114852905837424
  0.1779377261823292  0.1505190573615315  0.8708833795687021
 
  0.00000000E+00  0.00000000E+00  0.00000000E+00
  0.00000000E+00  0.00000000E+00  0.00000000E+00
  0.00000000E+00  0.00000000E+00  0.00000000E+00
  0.00000000E+00  0.00000000E+00  0.00000000E+00
  0.00000000E+00  0.00000000E+00  0.00000000E+00
  0.00000000E+00  0.00000000E+00  0.00000000E+00
  0.00000000E+00  0.00000000E+00  0.00000000E+00
  0.00000000E+00  0.00000000E+00  0.00000000E+00
  0.00000000E+00  0.00000000E+00  0.00000000E+00
  0.00000000E+00  0.00000000E+00  0.00000000E+00
  0.00000000E+00  0.00000000E+00  0.00000000E+00
  0.00000000E+00  0.00000000E+00  0.00000000E+00
  0.00000000E+00  0.00000000E+00  0.00000000E+00
  0.00000000E+00  0.00000000E+00  0.00000000E+00
  0.00000000E+00  0.00000000E+00  0.00000000E+00
  0.00000000E+00  0.00000000E+00  0.00000000E+00
  0.00000000E+00  0.00000000E+00  0.00000000E+00
  0.00000000E+00  0.00000000E+00  0.00000000E+00
  0.00000000E+00  0.00000000E+00  0.00000000E+00
  0.00000000E+00  0.00000000E+00  0.00000000E+00
  0.00000000E+00  0.00000000E+00  0.00000000E+00
  0.00000000E+00  0.00000000E+00  0.00000000E+00
  0.00000000E+00  0.00000000E+00  0.00000000E+00
  0.00000000E+00  0.00000000E+00  0.00000000E+00
  0.00000000E+00  0.00000000E+00  0.00000000E+00
  0.00000000E+00  0.00000000E+00  0.00000000E+00
