Automatically generated mesh
67
Reciprocal lattice
    0.00000000000000    0.25000000000000    0.25000000000000             2
    0.33333333333333    0.25000000000000    0.25000000000000             2
   -0.33333333333333    0.25000000000000    0.25000000000000             2
    0.00000000000000   -0.25000000000000    0.25000000000000             2
    0.33333333333333   -0.25000000000000    0.25000000000000             2
   -0.33333333333333   -0.25000000000000    0.25000000000000             2
0.000000	-0.000000	-0.500000	0.00
0.000000	-0.000000	-0.500000	0.00
0.100000	-0.100000	-0.400000	0.00
0.200000	-0.200000	-0.300000	0.00
0.300000	-0.300000	-0.200000	0.00
0.400000	-0.400000	-0.100000	0.00
0.500000	-0.500000	0.000000	0.00
0.500000	-0.400000	0.000000	0.00
0.500000	-0.300000	0.000000	0.00
0.500000	-0.200000	0.000000	0.00
0.500000	-0.100000	0.000000	0.00
0.500000	0.000000	0.000000	0.00
0.400000	0.100000	0.000000	0.00
0.300000	0.200000	0.000000	0.00
0.200000	0.300000	0.000000	0.00
0.100000	0.400000	0.000000	0.00
0.000000	0.500000	0.000000	0.00
0.000000	0.500000	-0.100000	0.00
0.000000	0.500000	-0.200000	0.00
0.000000	0.500000	-0.300000	0.00
0.000000	0.500000	-0.400000	0.00
0.000000	0.500000	-0.500000	0.00
0.000000	0.400000	-0.400000	0.00
0.000000	0.300000	-0.300000	0.00
0.000000	0.200000	-0.200000	0.00
0.000000	0.100000	-0.100000	0.00
-0.000000	0.000000	-0.000000	0.00
-0.094584	0.089400	-0.128550	0.00
-0.189168	0.178800	-0.257100	0.00
-0.283752	0.268200	-0.385650	0.00
-0.378336	0.357600	-0.514200	0.00
-0.472920	0.447000	-0.642750	0.00
-0.473848	0.357924	-0.626028	0.00
-0.474776	0.268848	-0.609306	0.00
-0.475704	0.179772	-0.592584	0.00
-0.476632	0.090696	-0.575862	0.00
-0.477560	0.001620	-0.559140	0.00
-0.469698	-0.075036	-0.450264	0.00
-0.461836	-0.151692	-0.341388	0.00
-0.453974	-0.228348	-0.232512	0.00
-0.446112	-0.305004	-0.123636	0.00
-0.438250	-0.381660	-0.014760	0.00
-0.351528	-0.394404	-0.095084	0.00
-0.264806	-0.407148	-0.175408	0.00
-0.178084	-0.419892	-0.255732	0.00
-0.091362	-0.432636	-0.336056	0.00
-0.004640	-0.445380	-0.416380	0.00
0.080378	-0.491220	-0.235046	0.00
0.165396	-0.537060	-0.053712	0.00
0.250414	-0.582900	0.127622	0.00
0.335432	-0.628740	0.308956	0.00
0.420450	-0.674580	0.490290	0.00
0.418594	-0.652732	0.323736	0.00
0.416738	-0.630884	0.157182	0.00
0.414882	-0.609036	-0.009372	0.00
0.413026	-0.587188	-0.175926	0.00
0.411170	-0.565340	-0.342480	0.00
0.328936	-0.452272	-0.373984	0.00
0.246702	-0.339204	-0.405488	0.00
0.164468	-0.226136	-0.436992	0.00
0.082234	-0.113068	-0.468496	0.00
