K4 Sb8 Se14                             
   1.00000000000000     
    -7.8384376593302418   -0.0158864856101677   -0.3101900631805604
     2.2462348221800248    9.8295172522427112   -0.0315252293384627
    -0.9239950136026600   -2.0042860627044230  -11.8070221028223994
   K    Sb   Se
     4     8    14
Direct
  0.2825988693875487  0.3347186068776443  0.1117902482128704
  0.4308482698075785  0.7350850791599549  0.5657960676318804
  0.5691517301924216  0.2649149208400449  0.4342039323681197
  0.7174011306124516  0.6652813931223565  0.8882097517871299
  0.0318529105565444  0.9435254763368259  0.3411603468845756
  0.1560932588604325  0.4353537303260827  0.8159563838742763
  0.7301187688795721  0.1350520649347729  0.0478373882047813
  0.5092562625240852  0.1900385666364368  0.7699092219730944
  0.2698812311204271  0.8649479350652275  0.9521626117952188
  0.9681470894434551  0.0564745236631740  0.6588396531154246
  0.8439067411395667  0.5646462696739173  0.1840436161257239
  0.4907437374759152  0.8099614333635630  0.2300907780269052
  0.8148941462079216  0.8682878670452121  0.1427388284164591
  0.6615117471339226  0.3380632477953287  0.9522221241036168
  0.4648569414796363  0.4371972018390356  0.7055576221132439
  0.2420385371335661  0.0104402185286331  0.5256368670415185
  0.0324016957350586  0.6868777807797836  0.3562935612883684
  0.3384882528660775  0.6619367522046711  0.0477778758963832
  0.4292862362927321  0.0676245485363780  0.1631847108198877
  0.9675983042649420  0.3131222192202167  0.6437064387116320
  0.5707137637072683  0.9323754514636221  0.8368152891801121
  0.8790319085394388  0.3207100769405682  0.2254752264158789
  0.1209680914605615  0.6792899230594313  0.7745247735841215
  0.7579614628664340  0.9895597814713667  0.4743631329584818
  0.5351430585203636  0.5628027981609640  0.2944423778867558
  0.1851058537920786  0.1317121329547880  0.8572611715835408
 
  0.00000000E+00  0.00000000E+00  0.00000000E+00
  0.00000000E+00  0.00000000E+00  0.00000000E+00
  0.00000000E+00  0.00000000E+00  0.00000000E+00
  0.00000000E+00  0.00000000E+00  0.00000000E+00
  0.00000000E+00  0.00000000E+00  0.00000000E+00
  0.00000000E+00  0.00000000E+00  0.00000000E+00
  0.00000000E+00  0.00000000E+00  0.00000000E+00
  0.00000000E+00  0.00000000E+00  0.00000000E+00
  0.00000000E+00  0.00000000E+00  0.00000000E+00
  0.00000000E+00  0.00000000E+00  0.00000000E+00
  0.00000000E+00  0.00000000E+00  0.00000000E+00
  0.00000000E+00  0.00000000E+00  0.00000000E+00
  0.00000000E+00  0.00000000E+00  0.00000000E+00
  0.00000000E+00  0.00000000E+00  0.00000000E+00
  0.00000000E+00  0.00000000E+00  0.00000000E+00
  0.00000000E+00  0.00000000E+00  0.00000000E+00
  0.00000000E+00  0.00000000E+00  0.00000000E+00
  0.00000000E+00  0.00000000E+00  0.00000000E+00
  0.00000000E+00  0.00000000E+00  0.00000000E+00
  0.00000000E+00  0.00000000E+00  0.00000000E+00
  0.00000000E+00  0.00000000E+00  0.00000000E+00
  0.00000000E+00  0.00000000E+00  0.00000000E+00
  0.00000000E+00  0.00000000E+00  0.00000000E+00
  0.00000000E+00  0.00000000E+00  0.00000000E+00
  0.00000000E+00  0.00000000E+00  0.00000000E+00
  0.00000000E+00  0.00000000E+00  0.00000000E+00
