Na4 Sb4 S8                              
   1.00000000000000     
     5.6651341010434688    0.7188032501392945   -0.5939032808917603
    -0.7518938311323181    5.6469992723192064   -0.4658468650691420
     0.6976304292745819    1.0497071322881217   11.4544797272019192
   Na   Sb   S 
     4     4     8
Direct
  0.5092328349674377  0.7434186922541423  0.8760922353589586
  0.4907671650325623  0.2565813077458576  0.1239077646410412
  0.9904864082358632  0.7449117859882759  0.6246646482611400
  0.0095135917641367  0.2550882140117243  0.3753353517388597
  0.0261816995125789  0.7791615577570061  0.1249965287245192
  0.9738183004874210  0.2208384422429938  0.8750034712754805
  0.4834399297654459  0.7770244048037103  0.3774999500248907
  0.5165600702345543  0.2229755951962897  0.6225000499751092
  0.5129421835894862  0.2177474047740500  0.3822746116075732
  0.4870578164105140  0.7822525952259500  0.6177253883924269
  0.9885586736333664  0.2182924569161180  0.1183741684360562
  0.0114413263666333  0.7817075430838820  0.8816258315639369
  0.9528161123633192  0.2451682880811369  0.6319862998233672
  0.0471838876366808  0.7548317119188632  0.3680137001766329
  0.5383629215550685  0.2435222727000026  0.8664034136125345
  0.4616370784449319  0.7564777272999974  0.1335965863874657
 
  0.00000000E+00  0.00000000E+00  0.00000000E+00
  0.00000000E+00  0.00000000E+00  0.00000000E+00
  0.00000000E+00  0.00000000E+00  0.00000000E+00
  0.00000000E+00  0.00000000E+00  0.00000000E+00
  0.00000000E+00  0.00000000E+00  0.00000000E+00
  0.00000000E+00  0.00000000E+00  0.00000000E+00
  0.00000000E+00  0.00000000E+00  0.00000000E+00
  0.00000000E+00  0.00000000E+00  0.00000000E+00
  0.00000000E+00  0.00000000E+00  0.00000000E+00
  0.00000000E+00  0.00000000E+00  0.00000000E+00
  0.00000000E+00  0.00000000E+00  0.00000000E+00
  0.00000000E+00  0.00000000E+00  0.00000000E+00
  0.00000000E+00  0.00000000E+00  0.00000000E+00
  0.00000000E+00  0.00000000E+00  0.00000000E+00
  0.00000000E+00  0.00000000E+00  0.00000000E+00
  0.00000000E+00  0.00000000E+00  0.00000000E+00
