Li4 Al4 S8                              
   1.00000000000000     
     6.2661280415530900    0.0000000000000000    0.0000000000000000
     0.0000000000000000    6.5578051043384695    0.0000000000000000
     0.0000000000000000    0.0000000000000000    7.8571206934582829
   Li   Al   S 
     4     4     8
Direct
  0.1195629820204993  0.9133857169239165  0.6217123545686420
  0.6195629820204994  0.0866142830760836  0.3782876454313579
  0.6195629820204994  0.5866142830760835  0.1217123545686422
  0.1195629820204993  0.4133857169239165  0.8782876454313580
  0.6223603489708388  0.5735877314137868  0.6256310733910367
  0.1223603489708388  0.4264122685862060  0.3743689266089631
  0.1223603489708388  0.9264122685862132  0.1256310733910367
  0.6223603489708388  0.0735877314137939  0.8743689266089633
  0.5100685300006087  0.9040240997487136  0.6382108401591911
  0.0100685300006086  0.0959759002512864  0.3617891598408089
  0.0100685300006086  0.5959759002512864  0.1382108401591911
  0.5100685300006087  0.4040240997487136  0.8617891598408089
  0.9860071290080545  0.0647423456631517  0.8851815438415529
  0.4860081290080591  0.9352576543368483  0.1148184561584471
  0.4860081290080591  0.4352576543368484  0.3851815438415530
  0.9860071290080545  0.5647423456631517  0.6148184561584471
 
  0.00000000E+00  0.00000000E+00  0.00000000E+00
  0.00000000E+00  0.00000000E+00  0.00000000E+00
  0.00000000E+00  0.00000000E+00  0.00000000E+00
  0.00000000E+00  0.00000000E+00  0.00000000E+00
  0.00000000E+00  0.00000000E+00  0.00000000E+00
  0.00000000E+00  0.00000000E+00  0.00000000E+00
  0.00000000E+00  0.00000000E+00  0.00000000E+00
  0.00000000E+00  0.00000000E+00  0.00000000E+00
  0.00000000E+00  0.00000000E+00  0.00000000E+00
  0.00000000E+00  0.00000000E+00  0.00000000E+00
  0.00000000E+00  0.00000000E+00  0.00000000E+00
  0.00000000E+00  0.00000000E+00  0.00000000E+00
  0.00000000E+00  0.00000000E+00  0.00000000E+00
  0.00000000E+00  0.00000000E+00  0.00000000E+00
  0.00000000E+00  0.00000000E+00  0.00000000E+00
  0.00000000E+00  0.00000000E+00  0.00000000E+00
