K4 Bi8 S14
1.0
   4.2440118199999999    0.0000000000000000    0.0000000000000000
   0.0000000000000000   13.4134087700000002    0.0408721200000000
   0.0000000000000000    1.2295926399999999   15.5108938900000002
K Bi S
4 8 14
direct
   0.2500000000000000    0.5684927900000000    0.8120900400000000 K+
   0.7500000000000000    0.4315072100000000    0.1879099600000000 K+
   0.7500000000000000    0.8287530900000000    0.6228547800000001 K+
   0.2500000000000000    0.1712469100000000    0.3771452200000000 K+
   0.2500000000000000    0.9461234300000000    0.8797735900000000 Bi3+
   0.7500000000000000    0.0538765700000000    0.1202264100000000 Bi3+
   0.2500000000000000    0.8315560600000000    0.2748885200000000 Bi3+
   0.7500000000000000    0.1684439400000000    0.7251114800000000 Bi3+
   0.7500000000000000    0.7314660800000000    0.0505602000000000 Bi3+
   0.2500000000000000    0.2685339200000000    0.9494397999999999 Bi3+
   0.7500000000000000    0.6066833300000000    0.4282972100000000 Bi3+
   0.2500000000000000    0.3933166700000000    0.5717027900000000 Bi3+
   0.2500000000000000    0.4579871100000000    0.3932069800000000 S2-
   0.7500000000000000    0.5420128900000000    0.6067930200000000 S2-
   0.2500000000000000    0.5981381200000000    0.0379375500000000 S2-
   0.7500000000000000    0.4018618800000000    0.9620624500000000 S2-
   0.7500000000000000    0.9856690600000000    0.2954005500000000 S2-
   0.2500000000000000    0.0143309400000000    0.7045994500000000 S2-
   0.7500000000000000    0.7978550599999999    0.8628662300000000 S2-
   0.2500000000000000    0.2021449400000000    0.1371337700000000 S2-
   0.2500000000000000    0.7554571800000000    0.4515683900000000 S2-
   0.7500000000000000    0.2445428200000000    0.5484316100000000 S2-
   0.7500000000000000    0.6916082099999999    0.2404193300000000 S2-
   0.2500000000000000    0.3083917900000000    0.7595806700000000 S2-
   0.2500000000000000    0.9035768199999999    0.0830384600000000 S2-
   0.7500000000000000    0.0964231800000000    0.9169615400000000 S2-
