SYSTEM = CIS
ISTART = 0
ICHARG = 2
PREC = Medium
ENCUT = 300
EDIFF = 1E-4
EDIFFG = -0.05
LWAVE = .FALSE.
LORBIT = 10
LREAL = Auto
LCHARG = .FALSE.
LASPH = .TRUE.
LMAXMIX = 4
NSW = 99

IBRION = 2
ISIF = 3
ISMEAR = 0
SIGMA = 0.05
POTIM = 0.1
