Li4 In4 Se8                             
   1.00000000000000     
     6.9461458037913877    0.0000000000000000    0.0000000000000000
     0.0000000000000000    7.3343817705556358    0.0000000000000000
     0.0000000000000000    0.0000000000000000    8.5622921626320831
   Li   In   Se
     4     4     8
Direct
  0.6195618403869886  0.5882461483943575  0.1223264475360484
  0.1195618403869885  0.9117538516056425  0.6223264475360483
  0.6195618403869886  0.0882461483943575  0.3776735524639516
  0.1195618403869885  0.4117538516056425  0.8776735524639517
  0.6221081977906947  0.5780230341478799  0.6250021796224163
  0.1221081977906947  0.4219769658521201  0.3749978203775841
  0.1221081977906947  0.9219769658521201  0.1250021796224161
  0.6221081977906947  0.0780230341478799  0.8749978203775837
  0.0028582008209854  0.0810027780933294  0.8673631993735089
  0.0028582008209854  0.5810027780933295  0.6326368006264911
  0.5028582008209855  0.9189972219066705  0.1326368006264910
  0.5028582008209855  0.4189972219066776  0.3673631993735089
  0.4916807610013267  0.9159828647157063  0.6212669641421266
  0.9916807610013267  0.0840171352842936  0.3787330358578735
  0.9916807610013267  0.5840171352842937  0.1212669641421266
  0.4916807610013267  0.4159828647157064  0.8787330358578734
 
  0.00000000E+00  0.00000000E+00  0.00000000E+00
  0.00000000E+00  0.00000000E+00  0.00000000E+00
  0.00000000E+00  0.00000000E+00  0.00000000E+00
  0.00000000E+00  0.00000000E+00  0.00000000E+00
  0.00000000E+00  0.00000000E+00  0.00000000E+00
  0.00000000E+00  0.00000000E+00  0.00000000E+00
  0.00000000E+00  0.00000000E+00  0.00000000E+00
  0.00000000E+00  0.00000000E+00  0.00000000E+00
  0.00000000E+00  0.00000000E+00  0.00000000E+00
  0.00000000E+00  0.00000000E+00  0.00000000E+00
  0.00000000E+00  0.00000000E+00  0.00000000E+00
  0.00000000E+00  0.00000000E+00  0.00000000E+00
  0.00000000E+00  0.00000000E+00  0.00000000E+00
  0.00000000E+00  0.00000000E+00  0.00000000E+00
  0.00000000E+00  0.00000000E+00  0.00000000E+00
  0.00000000E+00  0.00000000E+00  0.00000000E+00
