Li4 In4 Se8                             
   1.00000000000000     
     6.9546311143800699    0.0000000000000000    0.0000000000000000
     0.0000000000000000    7.2705979218083803    0.0000000000000000
     0.0000000000000000    0.0000000000000000    8.7830022264482590
   Li   In   Se
     4     4     8
Direct
  0.6188597455011822  0.5857863182551579  0.1226030158017361
  0.1188597455011819  0.9142136817448421  0.6226030158017363
  0.6188597455011822  0.0857863182551577  0.3773969841982639
  0.1188597455011819  0.4142136817448422  0.8773969841982637
  0.6224381316131711  0.5735971646603346  0.6264181339873146
  0.1224381316131713  0.4264028353396652  0.3735818660126856
  0.1224381316131713  0.9264028353396654  0.1264181339873144
  0.6224381316131711  0.0735971646603347  0.8735818660126854
  0.9996607673555665  0.0740037956532157  0.8704381761917308
  0.9996607673555665  0.5740037956532157  0.6295618238082692
  0.4996607673555665  0.9259962043467843  0.1295618238082692
  0.4996607673555665  0.4259962043467844  0.3704381761917309
  0.4952503555300754  0.9146260322886998  0.6237356395735654
 -0.0047496444699245  0.0853739677113004  0.3762643604264344
 -0.0047496444699245  0.5853739677113002  0.1237356395735655
  0.4952503555300754  0.4146260322886997  0.8762643604264346
 
  0.00000000E+00  0.00000000E+00  0.00000000E+00
  0.00000000E+00  0.00000000E+00  0.00000000E+00
  0.00000000E+00  0.00000000E+00  0.00000000E+00
  0.00000000E+00  0.00000000E+00  0.00000000E+00
  0.00000000E+00  0.00000000E+00  0.00000000E+00
  0.00000000E+00  0.00000000E+00  0.00000000E+00
  0.00000000E+00  0.00000000E+00  0.00000000E+00
  0.00000000E+00  0.00000000E+00  0.00000000E+00
  0.00000000E+00  0.00000000E+00  0.00000000E+00
  0.00000000E+00  0.00000000E+00  0.00000000E+00
  0.00000000E+00  0.00000000E+00  0.00000000E+00
  0.00000000E+00  0.00000000E+00  0.00000000E+00
  0.00000000E+00  0.00000000E+00  0.00000000E+00
  0.00000000E+00  0.00000000E+00  0.00000000E+00
  0.00000000E+00  0.00000000E+00  0.00000000E+00
  0.00000000E+00  0.00000000E+00  0.00000000E+00
